  32
  -51.425014660000002        2.9310241240605724E-002 !
 C         -4.6721670330       -0.2114541363       -1.3115979729
 C         -3.4086223239        0.3297130710       -0.7164622967
 C         -2.3869372948        0.7915172847       -1.7111095231
 C         -3.2215864319        0.3674044006        0.6004635973
 C         -2.0002240263        0.9105380344        1.2969171541
 C         -0.6929357135        0.3322543688        0.8133460305
 C         -0.5130186064       -1.0033993502        0.6437306479
 O         -1.4540436961       -1.9243421322        0.8772985034
 C          0.7693035411       -1.5926595188        0.1755783787
 O          0.8844870241       -2.7985731797        0.0123396472
 C          1.8687900508       -0.6480718155       -0.0669781920
 C          3.1071106856       -1.1319519473       -0.4795811602
 C          4.1587920776       -0.2605995353       -0.7114325968
 C          3.9797849619        1.1022684554       -0.5349339419
 C          2.7492148296        1.5938392751       -0.1276537053
 C          1.6870917389        0.7291920471        0.1104556875
 C          0.3841841054        1.2812149842        0.5374942886
 O          0.2183288946        2.4943364583        0.6499461707
 H         -4.4405560230       -1.0231905519       -1.9994920218
 H         -5.1799053258        0.5671914501       -1.8789584530
 H         -5.3481131675       -0.5796724274       -0.5450346499
 H         -2.8773422925        1.1977661656       -2.5925259858
 H         -1.7682899920       -0.0485370723       -2.0309797031
 H         -1.7326590538        1.5524265653       -1.2930119342
 H         -4.0207151692        0.0367504665        1.2502216242
 H         -2.0883120686        0.7321874828        2.3718942615
 H         -1.9376478435        1.9949504642        1.1586474252
 H         -2.3046653045       -1.5080309503        1.1161832455
 H          3.2212940783       -2.1976608992       -0.6098713801
 H          5.1148274744       -0.6458452209       -1.0282093655
 H          4.7960041673        1.7840905209       -0.7135398686
 H          2.5876113605        2.6521887479        0.0131654440
  32
  -51.424996000000000        2.8737160310792220E-002 !
 C         -4.6370524427       -0.1930752192        1.3891575852
 C         -3.3846474501        0.3386565645        0.7626313743
 C         -2.3402825960        0.8036790192        1.7321203431
 C         -3.2268774714        0.3663747397       -0.5583008784
 C         -2.0190479163        0.8981777441       -1.2867514913
 C         -0.7040265702        0.3250860102       -0.8184679010
 C         -0.5206159445       -1.0100040938       -0.6480555692
 O         -1.4649772984       -1.9311601280       -0.8669648421
 C          0.7692351775       -1.5974046468       -0.1995164210
 O          0.8939370230       -2.8048043723       -0.0549475905
 C          1.8641030126       -0.6487329973        0.0484315850
 C          3.1026947696       -1.1287789862        0.4646074941
 C          4.1503699126       -0.2540467665        0.7019460333
 C          3.9675208304        1.1083200020        0.5254515994
 C          2.7368001684        1.5960211828        0.1139830921
 C          1.6782052749        0.7281015641       -0.1281171027
 C          0.3748995992        1.2763715360       -0.5588136346
 O          0.2091210844        2.4882784084       -0.6839550853
 H         -4.3930275688       -0.9952085057        2.0836898075
 H         -5.3277343590       -0.5712901993        0.6409255758
 H         -5.1331790000        0.5940913159        1.9549467950
 H         -2.8104119383        1.2165021389        2.6214881295
 H         -1.6932187025        1.5604455579        1.2957441397
 H         -1.7170626595       -0.0360935496        2.0434519499
 H         -4.0419403574        0.0345727270       -1.1874746911
 H         -1.9536058558        1.9845082933       -1.1664351405
 H         -2.1282390146        0.7027543437       -2.3567922575
 H         -2.3188533098       -1.5143413842       -1.0927405088
 H          3.2196295422       -2.1941565758        0.5951450947
 H          5.1061065767       -0.6362416781        1.0233019595
 H          4.7805306473        1.7928413792        0.7084117806
 H          2.5724814978        2.6538353240       -0.0276134240
  32
  -51.425014130000001        2.9293807397979415E-002 !
 C         -4.6460847296       -0.1869694209       -1.3547500526
 C         -3.3958152677        0.3538292307       -0.7317019414
 C         -2.3731985026        0.8624106334       -1.7026456678
 C         -3.2195247222        0.3526390711        0.5869007407
 C         -2.0078603497        0.8877723805        1.3065880969
 C         -0.6964710510        0.3167717736        0.8246949334
 C         -0.5081746731       -1.0188930895        0.6649150915
 O         -1.4420708152       -1.9442961336        0.9083319063
 C          0.7770168127       -1.6034120470        0.1983274753
 O          0.9007975059       -2.8101702375        0.0480766863
 C          1.8671863288       -0.6527245496       -0.0612080981
 C          3.1062273320       -1.1308816939       -0.4782675569
 C          4.1481068332       -0.2533901597       -0.7306808335
 C          3.9582944946        1.1100322463       -0.5708308352
 C          2.7274127727        1.5956928426       -0.1573889260
 C          1.6754440277        0.7249463597        0.1022961750
 C          0.3738243190        1.2707970932        0.5408411177
 O          0.2033234211        2.4830762541        0.6552342488
 H         -5.3240742541       -0.5869662270       -0.6061350478
 H         -4.3964651881       -0.9749325986       -2.0637867692
 H         -5.1591798940        0.6009804464       -1.9040932299
 H         -1.7378083509        0.0428908186       -2.0421246953
 H         -1.7353391355        1.6207454569       -1.2556450268
 H         -2.8626213555        1.2875659813       -2.5753351023
 H         -4.0180929597       -0.0107786971        1.2197223050
 H         -2.1067077095        0.6928655280        2.3775601520
 H         -1.9449600004        1.9739626480        1.1844541473
 H         -2.2941821973       -1.5342961815        1.1500305307
 H          3.2286196883       -2.1970397294       -0.5964523581
 H          5.1044282758       -0.6343903085       -1.0516446226
 H          4.7660409382        1.7968911067       -0.7676768404
 H          2.5579927093        2.6541504736       -0.0272425587
  32
  -51.424964459999998        2.7793873099458626E-002 !
 C         -4.6261199765       -0.1838737356        1.4025222581
 C         -3.3810131037        0.3505086147        0.7638568091
 C         -2.3395819722        0.8431906609        1.7227479707
 C         -3.2254550003        0.3568248549       -0.5574778809
 C         -2.0212669086        0.8848344600       -1.2946492688
 C         -0.7054465178        0.3155584077       -0.8236672529
 C         -0.5194000618       -1.0185167817       -0.6485544030
 O         -1.4591271856       -1.9441151885       -0.8679470410
 C          0.7696216821       -1.6010320494       -0.1907009783
 O          0.8939000685       -2.8068247239       -0.0334420783
 C          1.8634131965       -0.6496640903        0.0514579819
 C          3.1029738629       -1.1257571462        0.4692132792
 C          4.1490869982       -0.2481491055        0.7028498975
 C          3.9634256080        1.1132276515        0.5217647245
 C          2.7318886779        1.5969685429        0.1080228292
 C          1.6751253139        0.7260558940       -0.1311414991
 C          0.3711928466        1.2698621475       -0.5654942666
 O          0.2035662391        2.4808161001       -0.6965305753
 H         -5.1279224335        0.6063103508        1.9588698195
 H         -4.3717398880       -0.9736631330        2.1076598373
 H         -5.3156618540       -0.5796562408        0.6623023714
 H         -1.7064191159        0.0158007613        2.0471264881
 H         -2.8124595340        1.2663455298        2.6058423873
 H         -1.7020014095        1.5991562984        1.2713544203
 H         -4.0371364163        0.0046442740       -1.1796391121
 H         -1.9556746980        1.9719114508       -1.1819222546
 H         -2.1329280146        0.6821437596       -2.3629721402
 H         -2.3136111897       -1.5345194127       -1.1029471203
 H          3.2216570161       -2.1903599948        0.6047234906
 H          5.1052926751       -0.6273525774        1.0263157317
 H          4.7744867164        1.7999835061        0.7037208424
 H          2.5652601441        2.6539107043       -0.0366749242
  32
  -51.425013100000001        2.9261896279200970E-002 !
 C         -4.6602773401       -0.2169573825       -1.3200890337
 C         -3.4007075397        0.3275271632       -0.7195554857
 C         -2.3737779863        0.7864306822       -1.7101704790
 C         -3.2208037065        0.3690639536        0.5982077446
 C         -2.0020689094        0.9117233968        1.2997788765
 C         -0.6938863476        0.3338387262        0.8180541603
 C         -0.5147385847       -1.0019801393        0.6484004831
 O         -1.4559027217       -1.9223764651        0.8833764490
 C          0.7657503511       -1.5914485800        0.1760601531
 O          0.8794738681       -2.7971659604        0.0102414994
 C          1.8652691939       -0.6472313209       -0.0678470885
 C          3.1019651577       -1.1317390608       -0.4844174094
 C          4.1534410026       -0.2609127940       -0.7194265206
 C          3.9758098580        1.1019205284       -0.5412808869
 C          2.7469227300        1.5939758757       -0.1294935235
 C          1.6849642570        0.7299469700        0.1114382607
 C          0.3837404741        1.2824054499        0.5431659299
 O          0.2197959899        2.4953025754        0.6603620089
 H         -5.3388201988       -0.5864881697       -0.5563705684
 H         -4.4231819308       -1.0281470961       -2.0066234034
 H         -5.1677000453        0.5602146742       -1.8896724076
 H         -2.8594604565        1.1891767552       -2.5957287883
 H         -1.7527427571       -0.0543015152       -2.0235042042
 H         -1.7223066877        1.5493407851       -1.2913384992
 H         -4.0235589374        0.0405130863        1.2446420059
 H         -2.0935166343        0.7312995869        2.3740900015
 H         -1.9392774759        1.9963875595        1.1637326077
 H         -2.3061057607       -1.5056692904        1.1229691065
 H          3.2143784043       -2.1973059633       -0.6174470148
 H          5.1078687596       -0.6465322071       -1.0406333343
 H          4.7916069717        1.7834870087       -0.7228490056
 H          2.5865166024        2.6523987860        0.0123568301
  32
  -51.425010129999997        2.9170075224580014E-002 !
 C         -4.6307660667       -0.2054815930       -1.3566172587
 C         -3.3794272067        0.3343522575       -0.7347394510
 C         -2.3382448518        0.7969852955       -1.7085405145
 C         -3.2193364896        0.3688829596        0.5856853724
 C         -2.0091636860        0.9030396640        1.3087035507
 C         -0.6976846019        0.3286120398        0.8323913102
 C         -0.5170754469       -1.0068756589        0.6623101105
 O         -1.4588772222       -1.9274059914        0.8942652217
 C          0.7656987052       -1.5953349976        0.1951717372
 O          0.8860650795       -2.8025010585        0.0453634036
 C          1.8581154584       -0.6478998742       -0.0670635996
 C          3.0898290163       -1.1290897767       -0.5017266943
 C          4.1345864489       -0.2553044402       -0.7546737801
 C          3.9557348375        1.1071529609       -0.5749708322
 C          2.7320050449        1.5958677496       -0.1442196506
 C          1.6762933234        0.7289977539        0.1129790042
 C          0.3798033827        1.2784863956        0.5621443882
 O          0.2182241525        2.4902400119        0.6933991029
 H         -5.3202681109       -0.5797897427       -0.6053414102
 H         -4.3838359648       -1.0126825847       -2.0444483486
 H         -5.1290819367        0.5752255970       -1.9292876932
 H         -1.6913119110        1.5563915200       -1.2767717391
 H         -2.8114187431        1.2059111888       -2.5981058814
 H         -1.7146463119       -0.0427144106       -2.0187356134
 H         -4.0324090814        0.0386281560        1.2181137603
 H         -2.1131040350        0.7089970371        2.3794941405
 H         -1.9439756304        1.9891673641        1.1865838715
 H         -2.3109456257       -1.5104322165        1.1263286807
 H          3.2037385410       -2.1945407435       -0.6340274519
 H          5.0849699538       -0.6383051590       -1.0907352322
 H          4.7662812300        1.7909904762       -0.7704809376
 H          2.5711229338        2.6538092954        0.0009678659
  32
  -51.424994810000001        2.8700995763127200E-002 !
 C         -4.6971510416       -0.2366830264       -1.2709455307
 C         -3.4273903306        0.3161491422       -0.7003821381
 C         -2.4212058256        0.7693918632       -1.7144635972
 C         -3.2217966458        0.3700136639        0.6134204502
 C         -1.9927066110        0.9255984246        1.2853295199
 C         -0.6890198343        0.3423004841        0.7977445397
 C         -0.5135982172       -0.9936164709        0.6252488839
 O         -1.4574746333       -1.9120422752        0.8567118712
 C          0.7666058412       -1.5860388663        0.1553185262
 O          0.8737705965       -2.7907334125       -0.0222216712
 C          1.8741854442       -0.6463503369       -0.0689269088
 C          3.1154530939       -1.1349990535       -0.4665234054
 C          4.1750443799       -0.2683006019       -0.6793370910
 C          4.0003753235        1.0948643310       -0.5007021546
 C          2.7663965461        1.5912030500       -0.1097867885
 C          1.6968907719        0.7311096650        0.1109710043
 C          0.3915678965        1.2879593467        0.5242987991
 O          0.2272164434        2.5019004940        0.6300185989
 H         -5.2209830925        0.5367881531       -1.8307005027
 H         -5.3561707686       -0.6080553128       -0.4912517321
 H         -4.4718722631       -1.0482317111       -1.9610498147
 H         -1.8100080300       -0.0742673566       -2.0388794490
 H         -1.7581152460        1.5312888142       -1.3122117043
 H         -2.9253282759        1.1708223822       -2.5903599931
 H         -4.0105805567        0.0449877719        1.2786633883
 H         -2.0671123909        0.7646791223        2.3641159687
 H         -1.9333893845        2.0078502909        1.1294624652
 H         -2.3083733946       -1.4918519942        1.0904214184
 H          3.2256018453       -2.2006485796       -0.6007315599
 H          5.1332921903       -0.6572833736       -0.9846354286
 H          4.8227168284        1.7731772414       -0.6648588035
 H          2.6081489823        2.6497751427        0.0328374560
  32
  -51.425005550000002        2.9029043544156859E-002 !
 C         -4.6831700533       -0.2170994637       -1.2967123273
 C         -3.4174588568        0.3286666752       -0.7103367488
 C         -2.4026102692        0.7909348148       -1.7117460410
 C         -3.2219924316        0.3677024273        0.6052801022
 C         -1.9973247702        0.9134097134        1.2937570102
 C         -0.6914632191        0.3338001736        0.8076892806
 C         -0.5115603550       -1.0019282183        0.6390218995
 O         -1.4514928338       -1.9231866883        0.8755382299
 C          0.7697157893       -1.5913176287        0.1678528026
 O          0.8820629956       -2.7965106320       -0.0024647849
 C          1.8717256569       -0.6479127851       -0.0680119129
 C          3.1117445053       -1.1329640456       -0.4739236360
 C          4.1663437057       -0.2628020708       -0.6968268764
 C          3.9879648923        1.0999872251       -0.5192098311
 C          2.7552339147        1.5928388733       -0.1201417963
 C          1.6904317264        0.7293282061        0.1099657145
 C          0.3853015328        1.2824161676        0.5285109229
 O          0.2175904471        2.4960433619        0.6325570933
 H         -4.4536699028       -1.0327074796       -1.9809697767
 H         -5.1939465016        0.5578672084       -1.8663444438
 H         -5.3553896113       -0.5812881040       -0.5248542525
 H         -1.7866534534       -0.0487987564       -2.0373659529
 H         -1.7448811670        1.5512147358       -1.2978964906
 H         -2.8994279666        1.1982660422       -2.5890198327
 H         -4.0155079726        0.0335581317        1.2602086094
 H         -2.0807399923        0.7397870635        2.3698286796
 H         -1.9357159602        1.9972461123        1.1504983617
 H         -2.3013196798       -1.5072495887        1.1175082324
 H          3.2251581197       -2.1986326770       -0.6051199111
 H          5.1236864984       -0.6485227622       -1.0090963845
 H          4.8060662210        1.7810768776       -0.6919036077
 H          2.5947101235        2.6511718593        0.0218881052
  32
  -51.424994190000000        2.8682171766475993E-002 !
 C         -4.6449267092       -0.2218307485        1.3679012822
 C         -3.3906961558        0.3237053597        0.7571053201
 C         -2.3515352939        0.7733084040        1.7392975680
 C         -3.2266501338        0.3746277571       -0.5625427234
 C         -2.0151959816        0.9189466926       -1.2754753334
 C         -0.7022412270        0.3386445870       -0.8102046594
 C         -0.5217324791       -0.9981644192       -0.6502412345
 O         -1.4675513618       -1.9157793997       -0.8771459468
 C          0.7660250753       -1.5916344972       -0.2035642546
 O          0.8856608552       -2.7997839641       -0.0603710125
 C          1.8651749774       -0.6480101414        0.0442978022
 C          3.1046048611       -1.1346292213        0.4501490306
 C          4.1559468277       -0.2646558385        0.6886363929
 C          3.9755766374        1.0995972207        0.5247333661
 C          2.7441432619        1.5937857356        0.1233048747
 C          1.6822371379        0.7305945335       -0.1210123411
 C          0.3787394600        1.2854272088       -0.5427817644
 O          0.2152799069        2.4986354015       -0.6570448329
 H         -5.3302843383       -0.5895521624        0.6094371717
 H         -5.1467526499        0.5538637245        1.9442567931
 H         -4.4021982698       -1.0350624282        2.0501458185
 H         -1.7024498779        1.5366654214        1.3178144573
 H         -1.7298713842       -0.0709569616        2.0410824001
 H         -2.8265301662        1.1723493719        2.6325286755
 H         -4.0380892421        0.0530930444       -1.2015557692
 H         -1.9504588917        2.0031763421       -1.1372784427
 H         -2.1183371448        0.7410130722       -2.3492196885
 H         -2.3212980865       -1.4950532005       -1.0972055067
 H          3.2191684854       -2.2013051804        0.5718812112
 H          5.1123000611       -0.6520092369        1.0018035999
 H          4.7912271293        1.7805656640        0.7090795230
 H          2.5819026309        2.6531576432       -0.0086453064
  32
  -51.424999720000002        2.8850506652625701E-002 !
 C         -4.6300174395       -0.1938228862        1.3959081404
 C         -3.3834913639        0.3444875073        0.7632811829
 C         -2.3430759352        0.8303141253        1.7267378609
 C         -3.2256709006        0.3593849313       -0.5577947832
 C         -2.0203156225        0.8918398602       -1.2898762646
 C         -0.7045694899        0.3208751840       -0.8206230166
 C         -0.5203608614       -1.0136763781       -0.6468965524
 O         -1.4636805227       -1.9362552330       -0.8635565934
 C          0.7696715457       -1.5992028924       -0.1962384000
 O          0.8949888168       -2.8061657726       -0.0488411498
 C          1.8638196980       -0.6493404453        0.0498350154
 C          3.1024586951       -1.1277418233        0.4676123323
 C          4.1492968521       -0.2518082548        0.7042265113
 C          3.9653895670        1.1100918718        0.5253972751
 C          2.7347358592        1.5960717445        0.1116413928
 C          1.6770497663        0.7269677014       -0.1298591384
 C          0.3737609455        1.2733265988       -0.5631489007
 O          0.2080946360        2.4846343868       -0.6937841323
 H         -5.3191350685       -0.5823254801        0.6513529216
 H         -5.1315048547        0.5920593513        1.9587068265
 H         -4.3772001782       -0.9902819821        2.0943037434
 H         -1.7113367792        0.0002546565        2.0467521310
 H         -2.8165654255        1.2483550910        2.6118866737
 H         -1.7040219025        1.5885820882        1.2812723574
 H         -4.0375860410        0.0139066507       -1.1839312027
 H         -1.9553732520        1.9783866310       -1.1718872465
 H         -2.1302375695        0.6938082249       -2.3593346495
 H         -2.3178959591       -1.5213846826       -1.0912129491
 H          3.2199503426       -2.1927782095        0.6005720177
 H          5.1049117773       -0.6326513252        1.0276184678
 H          4.7776114761        1.7955997924        0.7080877819
 H          2.5698190312        2.6535201271       -0.0319149892
  32
  -51.424999190000001        2.8834330576757664E-002 !
 C         -4.6165857779       -0.1843614026       -1.3845277245
 C         -3.3725472922        0.3512053437       -0.7447476986
 C         -2.3292765909        0.8420708621       -1.7028330659
 C         -3.2187706530        0.3592906668        0.5766938357
 C         -2.0143840895        0.8868796661        1.3143957289
 C         -0.6999608180        0.3175381533        0.8395452327
 C         -0.5136148605       -1.0177782679        0.6745202926
 O         -1.4517975225       -1.9413230047        0.9088876331
 C          0.7724366514       -1.6031243726        0.2123389414
 O          0.9004094235       -2.8110957109        0.0759755027
 C          1.8580420694       -0.6512241209       -0.0624049355
 C          3.0899199969       -1.1281083980       -0.5014110246
 C          4.1271188277       -0.2497904257       -0.7695545246
 C          3.9408223665        1.1129859624       -0.6001242351
 C          2.7176010006        1.5973324679       -0.1631699583
 C          1.6691722446        0.7259414008        0.1087287355
 C          0.3729655476        1.2710931367        0.5641786928
 O          0.2082603841        2.4822697558        0.6972136276
 H         -5.1107903107        0.6015174001       -1.9536815361
 H         -5.3127945957       -0.5677373599       -0.6440562502
 H         -4.3615381740       -0.9840639998       -2.0783496686
 H         -2.8001924515        1.2575793607       -2.5905398637
 H         -1.6909182663        0.0156968318       -2.0193054639
 H         -1.6969560956        1.6040974464       -1.2541157630
 H         -4.0317550119        0.0091929180        1.1986380006
 H         -2.1254176492        0.6820716577        2.3824385848
 H         -1.9489863799        1.9740367928        1.2029124030
 H         -2.3041315205       -1.5283523493        1.1451267565
 H          3.2099843400       -2.1938668184       -0.6256216720
 H          5.0774620523       -0.6296578166       -1.1089400360
 H          4.7457317292        1.8002979492       -0.8068464862
 H          2.5511934338        2.6552869220       -0.0248441303
  32
  -51.424998000000002        2.8798043744264323E-002 !
 C         -4.6806099471       -0.2459007777        1.3144981594
 C         -3.4167631559        0.3111176327        0.7351548698
 C         -2.3988193603        0.7536033549        1.7420495061
 C         -3.2260132151        0.3773688995       -0.5802293441
 C         -2.0042522535        0.9381358691       -1.2616752779
 C         -0.6956444652        0.3503957816       -0.7928717560
 C         -0.5175300950       -0.9878680809       -0.6426389629
 O         -1.4630369620       -1.9030106877       -0.8804402451
 C          0.7676726658       -1.5862796390       -0.1947722595
 O          0.8811063879       -2.7944838158       -0.0477823035
 C          1.8730694652       -0.6479304043        0.0450245255
 C          3.1157489069       -1.1409080756        0.4328553534
 C          4.1734734268       -0.2757947755        0.6607704086
 C          3.9959390357        1.0898339991        0.5052013805
 C          2.7607756123        1.5904023861        0.1235228418
 C          1.6926885822        0.7320943533       -0.1107565901
 C          0.3854425941        1.2932492040       -0.5119698910
 O          0.2201096312        2.5082293004       -0.6022323057
 H         -4.4484102569       -1.0641663930        1.9941925584
 H         -5.3486147702       -0.6091072388        0.5388072604
 H         -5.1971225794        0.5225839819        1.8873417092
 H         -1.7819252084       -0.0926654279        2.0480026068
 H         -2.8925401842        1.1425899537        2.6292338563
 H         -1.7426300296        1.5219357253        1.3410638519
 H         -4.0229725929        0.0596072402       -1.2392729459
 H         -1.9430509502        2.0191483793       -1.0980163288
 H         -2.0909997812        0.7847914440       -2.3407552368
 H         -2.3152202323       -1.4792396258       -1.1021073294
 H          3.2280761065       -2.2085374814        0.5482130390
 H          5.1327876240       -0.6679992408        0.9585272706
 H          4.8165939064        1.7668437453        0.6812541386
 H          2.6003175847        2.6510090085       -0.0001571685
  32
  -51.424997470000001        2.8781897083615785E-002 !
 C         -4.6294333345       -0.1800958946        1.4017613439
 C         -3.3830853932        0.3520803404        0.7636763805
 C         -2.3431029124        0.8474206992        1.7226670949
 C         -3.2258435377        0.3550708803       -0.5574763986
 C         -2.0211646512        0.8819686740       -1.2947516402
 C         -0.7049292502        0.3140345655       -0.8231596624
 C         -0.5194504003       -1.0195606236       -0.6437347146
 O         -1.4618189082       -1.9442295344       -0.8554915571
 C          0.7720710270       -1.6021218504       -0.1932183703
 O          0.8997163548       -2.8086985658       -0.0446617654
 C          1.8644378680       -0.6499006944        0.0516245011
 C          3.1032529238       -1.1250870418        0.4725418407
 C          4.1483080436       -0.2467687137        0.7081967990
 C          3.9624847304        1.1143380618        0.5253049239
 C          2.7317185815        1.5971089359        0.1082230933
 C          1.6758303139        0.7255740737       -0.1323939946
 C          0.3725796747        1.2685899867       -0.5698758948
 O          0.2057909959        2.4791763552       -0.7058094636
 H         -4.3765169667       -0.9655544324        2.1123633285
 H         -5.3164894080       -0.5805419917        0.6617904728
 H         -5.1335664604        0.6132425237        1.9518218866
 H         -1.7011521006        1.5983178785        1.2688918447
 H         -1.7143915632        0.0197097087        2.0545102068
 H         -2.8172736819        1.2779352460        2.6015590627
 H         -4.0377903270        0.0034149432       -1.1798897348
 H         -1.9558294056        1.9692632444       -1.1841115071
 H         -2.1324328348        0.6769086849       -2.3627117846
 H         -2.3167747680       -1.5322911876       -1.0853415599
 H          3.2223071556       -2.1895529332        0.6084446824
 H          5.1041575713       -0.6252123128        1.0335992725
 H          4.7733988116        1.8016724495        0.7069101485
 H          2.5654356134        2.6537932488       -0.0393024445
  32
  -51.424985679999999        2.8425041477827765E-002 !
 C         -4.6460894654       -0.2222963691        1.3626136933
 C         -3.3933825217        0.3265839517        0.7517176139
 C         -2.3584753216        0.7858247885        1.7340302637
 C         -3.2253844749        0.3713658113       -0.5674418178
 C         -2.0134631122        0.9178489437       -1.2776569168
 C         -0.7015841449        0.3366122482       -0.8104548353
 C         -0.5190967892       -1.0003373459       -0.6545654474
 O         -1.4584648555       -1.9212251625       -0.8944597575
 C          0.7642242588       -1.5916004745       -0.1915054490
 O          0.8784070838       -2.7978544975       -0.0295090891
 C          1.8654943552       -0.6483229402        0.0483359929
 C          3.1068474701       -1.1344222118        0.4488137833
 C          4.1604594978       -0.2644330228        0.6770248089
 C          3.9804617422        1.0993313241        0.5085235843
 C          2.7466970563        1.5931115505        0.1137975649
 C          1.6825627199        0.7298576655       -0.1202181948
 C          0.3761733415        1.2842855159       -0.5330536314
 O          0.2080791833        2.4981468976       -0.6331677296
 H         -5.3343683461       -0.5843102539        0.6039316174
 H         -5.1451807629        0.5499420118        1.9461156237
 H         -4.4013894682       -1.0403546796        2.0385395651
 H         -2.8370523462        1.1838203680        2.6256414013
 H         -1.7139784068        1.5527088742        1.3115731694
 H         -1.7312830637       -0.0536660707        2.0382918683
 H         -4.0327705901        0.0417180639       -1.2075675275
 H         -1.9488784513        2.0015415862       -1.1348988461
 H         -2.1145287370        0.7449050082       -2.3522310900
 H         -2.3106262739       -1.5073124478       -1.1307371220
 H          3.2216634553       -2.2006585359        0.5738406766
 H          5.1184706715       -0.6513918722        0.9856676908
 H          4.7980192976        1.7802377491        0.6848553454
 H          2.5842482092        2.6522834271       -0.0205790228
  32
  -51.424970080000001        2.7959657266959415E-002 !
 C         -4.6159185610       -0.1337218428        1.4315582215
 C         -3.3808126836        0.3888282408        0.7642524628
 C         -2.3508012123        0.9563322734        1.6935102409
 C         -3.2234222742        0.3252960668       -0.5551490393
 C         -2.0262569597        0.8352096365       -1.3162552675
 C         -0.7067906884        0.2828051286       -0.8342001169
 C         -0.5145684193       -1.0464726549       -0.6317945693
 O         -1.4513225979       -1.9801920581       -0.8270764717
 C          0.7806144277       -1.6150254816       -0.1732032392
 O          0.9160042836       -2.8187787313       -0.0102643888
 C          1.8661703149       -0.6526596393        0.0614191710
 C          3.1062749970       -1.1140613352        0.4938263541
 C          4.1446507524       -0.2258798577        0.7217056060
 C          3.9506909093        1.1313601146        0.5196266343
 C          2.7188636375        1.6003312228        0.0900134187
 C          1.6696608066        0.7187922127       -0.1432138323
 C          0.3656509715        1.2470206617       -0.5963833525
 O          0.1943502375        2.4537936985       -0.7577580387
 H         -5.1367843110        0.6774328261        1.9382602322
 H         -4.3464615197       -0.8738099984        2.1834929997
 H         -5.2943037645       -0.5886502979        0.7152544660
 H         -1.7237709694        1.6935720647        1.1986042192
 H         -1.7057119527        0.1609591572        2.0696015919
 H         -2.8333917043        1.4251906333        2.5478373718
 H         -4.0273568833       -0.0760376708       -1.1578202211
 H         -1.9625004672        1.9251576425       -1.2362421273
 H         -2.1431410529        0.5994691816       -2.3771180916
 H         -2.3086605585       -1.5797273073       -1.0664844989
 H          3.2315647879       -2.1757871891        0.6447285941
 H          5.1015050562       -0.5936428566        1.0563470301
 H          4.7562662911        1.8263837432        0.6957270000
 H          2.5466382306        2.6538099768       -0.0731767048
  32
  -51.423979269999997        9.7991204183381503E-003 !
 C         -4.3573667313        1.5536172637        1.5199658963
 C         -3.5302505534        1.2907426373        0.2981932231
 C         -3.4059385703        2.4448363271       -0.6544827122
 C         -2.9753960350        0.1025652064        0.0864805293
 C         -2.1258269018       -0.2731151534       -1.1005251135
 C         -0.7037768396       -0.4789967351       -0.6418034156
 C         -0.2785163552       -1.6457872629       -0.0917470438
 O         -1.0417853424       -2.7351437373        0.0640156280
 C          1.1114589192       -1.8486055125        0.3961702473
 O          1.4671565334       -2.9278003148        0.8470573776
 C          2.0106854538       -0.6906609437        0.2981834132
 C          3.3191818772       -0.8004662246        0.7606168030
 C          4.1844682691        0.2782221931        0.6798000521
 C          3.7482969389        1.4757536034        0.1352884551
 C          2.4476495117        1.5940913150       -0.3292990346
 C          1.5698442869        0.5187253186       -0.2536035516
 C          0.1894924572        0.6726604958       -0.7588473253
 O         -0.1841099788        1.7298479823       -1.2607293980
 H         -3.9125501531        2.3597755975        2.1021300039
 H         -4.4331804401        0.6699924232        2.1481520582
 H         -5.3590333675        1.8671015578        1.2296594519
 H         -2.3671297209        2.6037982347       -0.9390112736
 H         -3.7822761129        3.3554857022       -0.1976015997
 H         -3.9791880698        2.2559972933       -1.5612186469
 H         -3.0922980321       -0.6727967126        0.8326398671
 H         -2.1318331269        0.5296995820       -1.8355726280
 H         -2.5184170123       -1.1753692542       -1.5758732627
 H         -1.9391305575       -2.6075282318       -0.2891242466
 H          3.6352134656       -1.7438911455        1.1798599813
 H          5.1962030064        0.1825184851        1.0403668771
 H          4.4187849367        2.3179539424        0.0702931335
 H          2.0881411282        2.5175032572       -0.7582736337
  32
  -51.423977989999997        9.7858565985171116E-003 !
 C         -4.3854496751        1.4943390561        1.5238156508
 C         -3.5402290570        1.2693680741        0.3067656588
 C         -3.3979640550        2.4539390561       -0.6052512318
 C         -2.9856798403        0.0869735787        0.0642012300
 C         -2.1175419334       -0.2509771196       -1.1207392580
 C         -0.6993010176       -0.4607613654       -0.6510516076
 C         -0.2810335065       -1.6325578372       -0.1062121715
 O         -1.0490724445       -2.7203471505        0.0357686854
 C          1.1043365542       -1.8429499380        0.3910700124
 O          1.4510641646       -2.9239756882        0.8443935789
 C          2.0110233958       -0.6905789573        0.2969464593
 C          3.3192614634       -0.8111409047        0.7574971297
 C          4.1923194100        0.2614111978        0.6784917614
 C          3.7638859155        1.4637942563        0.1385278578
 C          2.4629847277        1.5933590834       -0.3224385161
 C          1.5776074322        0.5239487035       -0.2494480635
 C          0.1973733857        0.6897036051       -0.7516531731
 O         -0.1731737301        1.7552862566       -1.2379517762
 H         -3.9455003317        2.2769963914        2.1406132016
 H         -4.4758812969        0.5898944256        2.1196094534
 H         -5.3806639587        1.8239312644        1.2292620530
 H         -3.9579100871        2.2963971762       -1.5262884223
 H         -2.3545809785        2.6191182097       -0.8691379440
 H         -3.7793176834        3.3502787338       -0.1246568222
 H         -3.1191558287       -0.7130585108        0.7810098320
 H         -2.1194040081        0.5709770947       -1.8344018897
 H         -2.4971995137       -1.1430874261       -1.6251433613
 H         -1.9420737380       -2.5869836867       -0.3260361611
 H          3.6289484754       -1.7581404793        1.1734602063
 H          5.2040653898        0.1570768297        1.0366863626
 H          4.4401915600        2.3014614998        0.0755895267
 H          2.1097293643        2.5207169893       -0.7481014812
  32
  -51.423977200000003        9.7776792961101026E-003 !
 C         -4.3720178371        0.5144870217       -2.0523122692
 C         -3.5287749881        0.9422563253       -0.8895407618
 C         -3.3795046637        2.4262853923       -0.7147761789
 C         -2.9802584314        0.0491118228       -0.0734374739
 C         -2.1108891637        0.3623016077        1.1174188121
 C         -0.6948843733       -0.0604233189        0.8140527219
 C         -0.2771523883       -1.3463396044        0.9434892825
 O         -1.0405640079       -2.3515518107        1.3908847539
 C          1.1023067675       -1.7852927278        0.6037965572
 O          1.4483400739       -2.9470233489        0.7624747100
 C          2.0026869776       -0.7507239235        0.0767082457
 C          3.3020978235       -1.0952935366       -0.2848337999
 C          4.1692624068       -0.1365237169       -0.7823989009
 C          3.7440618556        1.1751283607       -0.9220511904
 C          2.4520873262        1.5277787430       -0.5644818632
 C          1.5722446941        0.5744231532       -0.0648202534
 C          0.1996890204        0.9782885348        0.3056531650
 O         -0.1667206209        2.1452340815        0.1908919190
 H         -4.4716644485       -0.5668540633       -2.0964141527
 H         -3.9241484262        0.8627664315       -2.9822781655
 H         -5.3636563042        0.9576437410       -1.9749595213
 H         -3.9388029580        2.7664718928        0.1558790510
 H         -3.7570157398        2.9508312409       -1.5877955866
 H         -2.3350565410        2.6986050946       -0.5715401868
 H         -3.1171641226       -1.0046518749       -0.2794518101
 H         -2.4899196240       -0.1472973728        2.0065616966
 H         -2.1109474914        1.4332836895        1.3119307725
 H         -1.9294068994       -2.0506469487        1.6469095308
 H          3.6100791161       -2.1231197874       -0.1647921155
 H          5.1740823975       -0.4137517855       -1.0586839504
 H          4.4160084048        1.9247077900       -1.3089056593
 H          2.1005372984        2.5437133822       -0.6658674384
  32
  -51.423972870000000        9.7329806117993512E-003 !
 C         -4.3901043061        1.4825796410        1.5255539510
 C         -3.5376126967        1.2660469607        0.3120631571
 C         -3.3782440842        2.4611725261       -0.5832769461
 C         -2.9912773054        0.0820673320        0.0586052559
 C         -2.1182439227       -0.2483862585       -1.1248732302
 C         -0.7003612421       -0.4580064285       -0.6534603849
 C         -0.2823001191       -1.6308549094       -0.1109192405
 O         -1.0498403752       -2.7196354376        0.0256651306
 C          1.1016361202       -1.8416089213        0.3904860154
 O          1.4453517551       -2.9215854692        0.8487294123
 C          2.0095149661       -0.6902065949        0.2961853847
 C          3.3174626311       -0.8119031090        0.7572937784
 C          4.1913913016        0.2598243896        0.6789132958
 C          3.7640256317        1.4626128567        0.1390880014
 C          2.4637176914        1.5931204595       -0.3232506429
 C          1.5774023999        0.5244787181       -0.2506574089
 C          0.1975456618        0.6915187495       -0.7534762632
 O         -0.1710700084        1.7572573810       -1.2408932457
 H         -4.5062330666        0.5672143487        2.1004455260
 H         -5.3748165622        1.8405425819        1.2284461493
 H         -3.9391714072        2.2417578221        2.1640103469
 H         -3.7503230024        3.3554972058       -0.0920550115
 H         -3.9371729537        2.3226329401       -1.5079316122
 H         -2.3325538943        2.6179885177       -0.8427116729
 H         -3.1375298498       -0.7257659208        0.7639610192
 H         -2.1201324588        0.5766802910       -1.8349528796
 H         -2.4952996441       -1.1390458993       -1.6338147738
 H         -1.9419986063       -2.5849938774       -0.3373909698
 H          3.6260574866       -1.7594383018        1.1727989494
 H          5.2026435415        0.1551959961        1.0383931899
 H          4.4408695165        2.2999815112        0.0768521121
 H          2.1111138305        2.5213315305       -0.7477271514
  32
  -51.423972839999998        9.7326716349819074E-003 !
 C         -4.4126196704        1.4479795935        1.5231059355
 C         -3.5474129074        1.2537280531        0.3148132097
 C         -3.3850387729        2.4632158941       -0.5601858680
 C         -2.9949744200        0.0755571761        0.0478165079
 C         -2.1120226482       -0.2342723353       -1.1339852009
 C         -0.6961905412       -0.4469246543       -0.6574150325
 C         -0.2818662227       -1.6234893591       -0.1198791699
 O         -1.0520040496       -2.7115273438        0.0067899374
 C          1.0988165967       -1.8381884720        0.3882919912
 O          1.4370527869       -2.9188392253        0.8489100446
 C          2.0110235469       -0.6902001718        0.2965573207
 C          3.3188221220       -0.8184601647        0.7561022985
 C          4.1977984914        0.2492923343        0.6776744268
 C          3.7754067871        1.4547486825        0.1398949566
 C          2.4747601177        1.5921988638       -0.3195133406
 C          1.5835693133        0.5276173653       -0.2472844748
 C          0.2032776179        0.7020795094       -0.7468348977
 O         -0.1641522205        1.7732654815       -1.2231226769
 H         -5.3992263291        1.7962638358        1.2210325766
 H         -3.9772408162        2.2063435917        2.1727316205
 H         -4.5222042900        0.5259334750        2.0878898349
 H         -2.3392239867        2.6219256235       -0.8179485796
 H         -3.7544789964        3.3499613869       -0.0533054145
 H         -3.9454783717        2.3417596217       -1.4864476845
 H         -3.1440441133       -0.7431094286        0.7400023356
 H         -2.1119194335        0.6009857862       -1.8320464628
 H         -2.4825872258       -1.1186184855       -1.6586942243
 H         -1.9416077412       -2.5720384695       -0.3609944916
 H          3.6237646155       -1.7678996224        1.1698956686
 H          5.2090971315        0.1389677939        1.0352888187
 H          4.4564036455        2.2886264231        0.0769094905
 H          2.1256453234        2.5226442371       -0.7418565307
  32
  -51.423972659999997        9.7308179801927578E-003 !
 C         -4.3582786199        1.4985561804        1.5427434283
 C         -3.5210715497        1.2731323648        0.3202958302
 C         -3.3657744988        2.4646857568       -0.5802140658
 C         -2.9848399473        0.0849493331        0.0647330784
 C         -2.1236904790       -0.2547135452       -1.1248421290
 C         -0.7039173205       -0.4654912102       -0.6598224579
 C         -0.2856688244       -1.6355153228       -0.1112903600
 O         -1.0541256416       -2.7225875150        0.0350955279
 C          1.1000798205       -1.8447387830        0.3851744601
 O          1.4488452522       -2.9264662058        0.8356631041
 C          2.0040991840       -0.6898689403        0.2963945981
 C          3.3086468686       -0.8046779091        0.7687728141
 C          4.1786433232        0.2706677929        0.6945000428
 C          3.7515854745        1.4696316706        0.1458666638
 C          2.4547547578        1.5932126547       -0.3279286072
 C          1.5719112558        0.5215665583       -0.2577540705
 C          0.1946669403        0.6827180550       -0.7688604188
 O         -0.1726546059        1.7437729773       -1.2675408127
 H         -3.9000756694        2.2628099045        2.1693995306
 H         -4.4664551694        0.5879508786        2.1259687268
 H         -5.3468917995        1.8535833259        1.2556253020
 H         -3.7177129532        3.3639847730       -0.0828186757
 H         -3.9452992577        2.3311306537       -1.4929482967
 H         -2.3239349137        2.6093611173       -0.8611645283
 H         -3.1270276933       -0.7188816978        0.7755219958
 H         -2.1274841655        0.5667903389       -1.8390238490
 H         -2.5067240873       -1.1464940366       -1.6269121728
 H         -1.9476500087       -2.5893615544       -0.3253233503
 H          3.6177537697       -1.7492924605        1.1905143023
 H          5.1872537834        0.1712929517        1.0628690224
 H          4.4260931145        2.3089262114        0.0851778510
 H          2.1019192630        2.5180601763       -0.7593169632
  32
  -51.423971109999997        9.7148705551090911E-003 !
 C         -4.3711439480        1.4805791889        1.5407919531
 C         -3.5266644223        1.2665916409        0.3212001032
 C         -3.3674014973        2.4659284202       -0.5683539160
 C         -2.9880006355        0.0811227518        0.0583769683
 C         -2.1204916968       -0.2481012598       -1.1295441383
 C         -0.7019523189       -0.4594557217       -0.6610090508
 C         -0.2858796499       -1.6309554403       -0.1139363132
 O         -1.0565785401       -2.7167951190        0.0294549569
 C          1.0990437610       -1.8432869580        0.3837437255
 O          1.4453708122       -2.9258219761        0.8339417027
 C          2.0054010735       -0.6900684036        0.2953496071
 C          3.3104562418       -0.8090294983        0.7650914703
 C          4.1827047263        0.2645992611        0.6921768708
 C          3.7570545381        1.4661549100        0.1482889849
 C          2.4597004544        1.5937780379       -0.3230336989
 C          1.5748649253        0.5236308647       -0.2551945692
 C          0.1977658256        0.6882189472       -0.7658268083
 O         -0.1683637608        1.7513436937       -1.2609090303
 H         -5.3582350704        1.8376991798        1.2514645769
 H         -3.9170043720        2.2393134738        2.1770557061
 H         -4.4821338335        0.5647258734        2.1151105954
 H         -3.9437597374        2.3403828527       -1.4843682892
 H         -2.3244502891        2.6126407927       -0.8442225871
 H         -3.7209725428        3.3610061772       -0.0644578659
 H         -3.1339708564       -0.7287410762        0.7614899186
 H         -2.1233381766        0.5781955046       -1.8381693262
 H         -2.4990303779       -1.1375108079       -1.6395128363
 H         -1.9495288173       -2.5803370804       -0.3312674398
 H          3.6182600613       -1.7554382898        1.1837960401
 H          5.1915344799        0.1619505699        1.0590150776
 H          4.4328126419        2.3045858997        0.0900107679
 H          2.1081874821        2.5207302908       -0.7509839011
  32
  -51.423969339999999        9.6966915852459822E-003 !
 C         -4.3888023489        1.4495065762        1.5397352451
 C         -3.5306127814        1.2564124180        0.3263037779
 C         -3.3564937545        2.4724842449       -0.5370879178
 C         -2.9936777081        0.0741866743        0.0466844405
 C         -2.1169896023       -0.2368564552       -1.1394206692
 C         -0.7002465490       -0.4506588334       -0.6657991123
 C         -0.2857932620       -1.6263651220       -0.1263176749
 O         -1.0544517422       -2.7155206241       -0.0000475949
 C          1.0939039360       -1.8387774755        0.3857852678
 O          1.4321430817       -2.9183183876        0.8492268158
 C          2.0048773984       -0.6895072536        0.2957782298
 C          3.3105117566       -0.8142935372        0.7625266731
 C          4.1875672670        0.2552242728        0.6870751962
 C          3.7657478683        1.4587112416        0.1443925347
 C          2.4675116702        1.5925082040       -0.3227390243
 C          1.5780673587        0.5263390047       -0.2528799726
 C          0.1998887463        0.6975728486       -0.7589045364
 O         -0.1651762226        1.7656513768       -1.2442113257
 H         -5.3701115310        1.8176614179        1.2449085584
 H         -3.9390843476        2.1925730377        2.1971529632
 H         -4.5119739839        0.5226130282        2.0935536765
 H         -3.6987381342        3.3603411905       -0.0131179498
 H         -3.9354376801        2.3743076040       -1.4547870746
 H         -2.3122925315        2.6128128319       -0.8110067935
 H         -3.1513863649       -0.7486092580        0.7320434727
 H         -2.1185994971        0.5981055586       -1.8378663436
 H         -2.4914368303       -1.1207658332       -1.6618279489
 H         -1.9424844176       -2.5803736304       -0.3731050935
 H          3.6150071147       -1.7622867500        1.1800440156
 H          5.1971588181        0.1477128329        1.0503371751
 H          4.4452158415        2.2939805416        0.0838169281
 H          2.1189539544        2.5213734833       -0.7489412421
  32
  -51.423968590000001        9.6889988965442771E-003 !
 C         -4.4010083554        1.4833869371        1.5166411320
 C         -3.5475791743        1.2652898220        0.3040171058
 C         -3.4020688068        2.4540789713       -0.6020831553
 C         -2.9892547852        0.0849631678        0.0599627004
 C         -2.1146081207       -0.2468336858       -1.1218699200
 C         -0.6973752742       -0.4567055482       -0.6490247746
 C         -0.2799275327       -1.6297541361       -0.1064498307
 O         -1.0488084745       -2.7172492784        0.0329218073
 C          1.1049491502       -1.8417977459        0.3916177344
 O          1.4495574969       -2.9226424152        0.8469742171
 C          2.0134146734       -0.6909224590        0.2965512364
 C          3.3227431650       -0.8145121752        0.7531169098
 C          4.1974623694        0.2566119623        0.6733747948
 C          3.7693681987        1.4607842480        0.1372276515
 C          2.4675070868        1.5932374701       -0.3202555651
 C          1.5806393691        0.5251884030       -0.2468580812
 C          0.1996051725        0.6937606555       -0.7459815633
 O         -0.1710860195        1.7613601264       -1.2276830527
 H         -4.4933552233        0.5763199932        2.1082316522
 H         -5.3950273499        1.8117822234        1.2165075090
 H         -3.9670609644        2.2646606337        2.1395476308
 H         -2.3582311676        2.6188773753       -0.8643283259
 H         -3.7823080590        3.3489749985       -0.1175860308
 H         -3.9616561198        2.3018806103       -1.5243230354
 H         -3.1258842253       -0.7182671136        0.7726517237
 H         -2.1151462337        0.5777481147       -1.8325101682
 H         -2.4908314128       -1.1377077417       -1.6311735485
 H         -1.9428070213       -2.5802539171       -0.3248395964
 H          3.6319183109       -1.7626521828        1.1668746421
 H          5.2098574085        0.1500693208        1.0289813615
 H          4.4467700934        2.2975081932        0.0740673881
 H          2.1144996549        2.5220926669       -0.7428690734
  32
  -51.423968090000002        9.6838738281812727E-003 !
 C         -4.3596235859        0.5589272478       -2.0726353492
 C         -3.5309596665        0.9625283744       -0.8909309496
 C         -3.4104673047        2.4422801738       -0.6647440292
 C         -2.9700286663        0.0527551573       -0.1022454517
 C         -2.1156312131        0.3408615158        1.1056196404
 C         -0.6964578628       -0.0755119499        0.8099471637
 C         -0.2712436931       -1.3583774374        0.9451835026
 O         -1.0305755243       -2.3683400604        1.3890055046
 C          1.1146640136       -1.7876160159        0.6192955273
 O          1.4716208812       -2.9435208256        0.7950879442
 C          2.0075259408       -0.7512782535        0.0830939035
 C          3.3095685509       -1.0899268950       -0.2746740684
 C          4.1689515417       -0.1303704481       -0.7839908526
 C          3.7331215399        1.1760531396       -0.9391419332
 C          2.4390406885        1.5231688289       -0.5836162165
 C          1.5670515945        0.5690326562       -0.0718173844
 C          0.1931516240        0.9671692881        0.3003502945
 O         -0.1786606375        2.1322863471        0.1856340018
 H         -5.3617920244        0.9754595688       -1.9833528609
 H         -4.4336807153       -0.5220356893       -2.1574698923
 H         -3.9164977207        0.9522202943       -2.9867493207
 H         -3.9752649387        2.7418000802        0.2171958310
 H         -3.7982853631        2.9893204886       -1.5192138866
 H         -2.3708443291        2.7283685036       -0.5129061313
 H         -3.0843050591       -0.9959732475       -0.3444968025
 H         -2.5058121713       -0.1870828493        1.9793110952
 H         -2.1185684693        1.4076723371        1.3218154122
 H         -1.9248521742       -2.0749102966        1.6348898566
 H          3.6251794098       -2.1140340517       -0.1431367308
 H          5.1755736135       -0.4029955788       -1.0582426427
 H          4.3987794344        1.9260046300       -1.3359417859
 H          2.0803562753        2.5355580713       -0.6949820545
  32
  -51.423968000000002        9.6829516038139090E-003 !
 C         -4.3704861018        0.5479377661       -2.0601268958
 C         -3.5318840742        0.9568099941       -0.8872603550
 C         -3.3920338047        2.4379150720       -0.6823819185
 C         -2.9791089753        0.0509541862       -0.0882230236
 C         -2.1140402792        0.3461621302        1.1103369175
 C         -0.6962544727       -0.0716829968        0.8081823453
 C         -0.2737981100       -1.3559172288        0.9387192243
 O         -1.0367811915       -2.3649863977        1.3777949597
 C          1.1120990288       -1.7869581755        0.6153053635
 O          1.4675075886       -2.9430327608        0.7932042261
 C          2.0072817336       -0.7511234749        0.0820994863
 C          3.3094058987       -1.0907228299       -0.2745289370
 C          4.1706695125       -0.1312941970       -0.7809908287
 C          3.7367382965        1.1759744963       -0.9345822491
 C          2.4426783434        1.5240649283       -0.5799724979
 C          1.5688250677        0.5701142630       -0.0710411018
 C          0.1951486024        0.9699700375        0.3001824246
 O         -0.1746391766        2.1359081915        0.1858338669
 H         -3.9231662661        0.9191158897       -2.9814190279
 H         -5.3653618798        0.9824243629       -1.9756000959
 H         -4.4624788480       -0.5328014691       -2.1276391960
 H         -2.3490029129        2.7136559823       -0.5354165184
 H         -3.9522367224        2.7568396448        0.1957556558
 H         -3.7740503842        2.9777255498       -1.5440188240
 H         -3.1097656810       -0.9995719840       -0.3140903741
 H         -2.4967166348       -0.1763078577        1.9906405665
 H         -2.1149368972        1.4142707787        1.3201522294
 H         -1.9309222107       -2.0679989831        1.6196085638
 H          3.6237261108       -2.1153733090       -0.1445377097
 H          5.1771161597       -0.4049237264       -1.0549122199
 H          4.4038499599        1.9258329767       -1.3291555936
 H          2.0855202020        2.5372809555       -0.6889156350
  32
  -51.423964810000001        9.6503205364767142E-003 !
 C         -4.3748126769        0.5481782825       -2.0590255556
 C         -3.5353901300        0.9575864087       -0.8868539859
 C         -3.4021842579        2.4387231917       -0.6770058616
 C         -2.9770296153        0.0517682201       -0.0916872937
 C         -2.1130820168        0.3468141174        1.1076428571
 C         -0.6954894879       -0.0719703716        0.8067570747
 C         -0.2722091967       -1.3555986053        0.9408623421
 O         -1.0327407435       -2.3639769177        1.3860696071
 C          1.1120839595       -1.7876138240        0.6119798951
 O          1.4657449945       -2.9451675107        0.7831437513
 C          2.0082796576       -0.7512276893        0.0815596044
 C          3.3111921187       -1.0906633482       -0.2723369507
 C          4.1738063015       -0.1308386341       -0.7756529616
 C          3.7403318618        1.1766123001       -0.9289047584
 C          2.4453036850        1.5244531313       -0.5774408221
 C          1.5700908661        0.5700727950       -0.0715631983
 C          0.1951314273        0.9690671333        0.2957918187
 O         -0.1760436226        2.1342212186        0.1783589137
 H         -5.3740602342        0.9710445070       -1.9661686196
 H         -4.4555587875       -0.5330475971       -2.1336190158
 H         -3.9365308583        0.9306551709       -2.9799682004
 H         -3.7934374266        2.9798423537       -1.5335837206
 H         -2.3593531366        2.7190185151       -0.5369814028
 H         -3.9571838693        2.7512242848        0.2067112953
 H         -3.1020275186       -0.9986093802       -0.3213835525
 H         -2.4977228541       -0.1751827151        1.9872763479
 H         -2.1137517281        1.4149678921        1.3170551193
 H         -1.9251768734       -2.0675750526        1.6349368407
 H          3.6249439224       -2.1155968986       -0.1425405526
 H          5.1813192450       -0.4039313760       -1.0460865919
 H          4.4086393116        1.9267980059       -1.3208845443
 H          2.0882945064        2.5375562082       -0.6874578833
  32
  -51.423963980000003        9.6418483644966340E-003 !
 C         -4.4075879898        0.5118222378       -2.0281762561
 C         -3.5441412235        0.9411314421       -0.8809343151
 C         -3.3852956749        2.4254248557       -0.7165284642
 C         -2.9890318514        0.0494835871       -0.0676866435
 C         -2.1064053935        0.3646034435        1.1128809490
 C         -0.6922972950       -0.0599353526        0.8029189272
 C         -0.2766422221       -1.3467091148        0.9301065551
 O         -1.0436677049       -2.3521423805        1.3705431496
 C          1.1049544994       -1.7854556660        0.5987417738
 O          1.4505862954       -2.9469448438        0.7597029875
 C          2.0088762658       -0.7501724401        0.0791737406
 C          3.3116912518       -1.0939485376       -0.2707961317
 C          4.1816521125       -0.1352294524       -0.7635385093
 C          3.7555379403        1.1753810583       -0.9106093187
 C          2.4604481935        1.5273743653       -0.5637130380
 C          1.5781270464        0.5742537620       -0.0678927819
 C          0.2037848059        0.9782598842        0.2960373392
 O         -0.1621027124        2.1451917435        0.1792734528
 H         -3.9731648988        0.8531354263       -2.9670062591
 H         -5.3956535198        0.9604161183       -1.9371116488
 H         -4.5134413124       -0.5691306469       -2.0651963401
 H         -3.7614284015        2.9464438792       -1.5923180952
 H         -2.3390830059        2.6927253616       -0.5773229366
 H         -3.9410998965        2.7751191283        0.1528005381
 H         -3.1352620459       -1.0046009666       -0.2656887815
 H         -2.4775397876       -0.1418458393        2.0074773051
 H         -2.1034004952        1.4361757774        1.3044436769
 H         -1.9357021676       -2.0521725190        1.6164606239
 H          3.6194246856       -2.1213559381       -0.1465607775
 H          5.1889827469       -0.4116986622       -1.0311725777
 H          4.4294921300        1.9247281898       -1.2944515073
 H          2.1087524474        2.5427918638       -0.6695161071
  32
  -51.423961120000001        9.6127120273449187E-003 !
 C         -4.3388579710        0.5483109266       -2.0826130384
 C         -3.5141315719        0.9568277432       -0.8998783298
 C         -3.3764310068        2.4378400085       -0.6930129662
 C         -2.9711498353        0.0504126827       -0.0946257897
 C         -2.1192245901        0.3438371130        1.1137600128
 C         -0.6995173673       -0.0723659618        0.8196192267
 C         -0.2759955494       -1.3562112702        0.9500948982
 O         -1.0373705396       -2.3670898711        1.3883142468
 C          1.1103552213       -1.7852730765        0.6260291403
 O          1.4696732949       -2.9392092835        0.8100068608
 C          2.0005332533       -0.7509535943        0.0811959062
 C          3.2979098262       -1.0923035300       -0.2906931787
 C          4.1543161991       -0.1341588327       -0.8077647411
 C          3.7206752968        1.1738350915       -0.9557151839
 C          2.4314959843        1.5238223795       -0.5856801219
 C          1.5621363507        0.5708039684       -0.0673218834
 C          0.1927017967        0.9716616672        0.3175239400
 O         -0.1733360395        2.1401834930        0.2188245163
 H         -5.3347757977        0.9825803446       -2.0094648149
 H         -4.4297509887       -0.5324899730       -2.1509157705
 H         -3.8811049631        0.9194181550       -2.9987717256
 H         -2.3354037258        2.7126578779       -0.5306957010
 H         -3.9488597948        2.7572680284        0.1770324930
 H         -3.7453161364        2.9781104137       -1.5601669896
 H         -3.0983316068       -0.9999017985       -0.3237176460
 H         -2.5094368740       -0.1811664871        1.9890910283
 H         -2.1232161939        1.4113984525        1.3262364441
 H         -1.9317540321       -2.0735021907        1.6336084091
 H          3.6122354252       -2.1175293222       -0.1648196559
 H          5.1569690945       -0.4092854051       -1.0939954719
 H          4.3843478855        1.9228325919       -1.3575343631
 H          2.0744854972        2.5375230873       -0.6906326067
  32
  -51.423960299999997        9.6043745048753539E-003 !
 C         -4.3908741552        0.5096222058       -2.0381168094
 C         -3.5376956131        0.9397462627       -0.8833482961
 C         -3.3847076438        2.4241883495       -0.7148674793
 C         -2.9863475449        0.0485322473       -0.0671904560
 C         -2.1079947021        0.3641610789        1.1163913398
 C         -0.6929164547       -0.0585654181        0.8074432393
 C         -0.2778864365       -1.3458928870        0.9317285411
 O         -1.0465608882       -2.3508762055        1.3700361191
 C          1.1035809167       -1.7845122761        0.6015570435
 O          1.4497046016       -2.9457823232        0.7631587692
 C          2.0067004283       -0.7496576338        0.0798425037
 C          3.3083475715       -1.0945459022       -0.2735068497
 C          4.1771826232       -0.1370445252       -0.7703585736
 C          3.7510128779        1.1734545802       -0.9181791500
 C          2.4574854875        1.5268238603       -0.5669439989
 C          1.5761797899        0.5749808529       -0.0668085802
 C          0.2034049223        0.9801447585        0.3019282967
 O         -0.1618406502        2.1475343977        0.1877354407
 H         -4.4879334946       -0.5719107619       -2.0810326510
 H         -3.9528530577        0.8591419486       -2.9722395545
 H         -5.3829368300        0.9500930140       -1.9514828690
 H         -3.7561041370        2.9455144338       -1.5922009836
 H         -2.3407587927        2.6948881215       -0.5672018326
 H         -3.9480657907        2.7699297618        0.1511786422
 H         -3.1286139752       -1.0057274842       -0.2679852960
 H         -2.4798776698       -0.1432017390        2.0101295297
 H         -2.1070170932        1.4356184784        1.3084980132
 H         -1.9400912386       -2.0493707437        1.6085811780
 H          3.6157629827       -2.1219287763       -0.1480865622
 H          5.1835153285       -0.4143284489       -1.0409274103
 H          4.4238429278        1.9217098709       -1.3060252048
 H          2.1062993971        2.5423416572       -0.6734114920
  32
  -51.423957729999998        9.5782903098727591E-003 !
 C         -4.3995279907        0.5199480194       -2.0360931253
 C         -3.5417018459        0.9445028611       -0.8828123577
 C         -3.3876906494        2.4281021781       -0.7087871924
 C         -2.9870750114        0.0494654376       -0.0730135732
 C         -2.1084487696        0.3599811290        1.1117503328
 C         -0.6932204679       -0.0624888964        0.8039241274
 C         -0.2760194251       -1.3487220501        0.9313753655
 O         -1.0426267331       -2.3550662955        1.3704193127
 C          1.1070208207       -1.7854560560        0.6034661438
 O          1.4556224607       -2.9451862219        0.7708586746
 C          2.0085194556       -0.7504224673        0.0794410491
 C          3.3108388103       -1.0936593745       -0.2730171040
 C          4.1788752602       -0.1348672699       -0.7689429095
 C          3.7512953964        1.1752038791       -0.9166747754
 C          2.4566635204        1.5265628501       -0.5675166455
 C          1.5761847427        0.5734314136       -0.0684373323
 C          0.2023355278        0.9767693590        0.2983199114
 O         -0.1640651128        2.1436087273        0.1832847735
 H         -4.5047053264       -0.5607457392       -2.0789103312
 H         -3.9604912648        0.8656800989       -2.9709308604
 H         -5.3881165567        0.9676053169       -1.9482681659
 H         -2.3434860886        2.6973490805       -0.5586130690
 H         -3.9523164489        2.7712846778        0.1572023324
 H         -3.7574079980        2.9527251323       -1.5849740923
 H         -3.1296567393       -1.0037799376       -0.2779257906
 H         -2.4824520808       -0.1503564474        2.0028720166
 H         -2.1067307671        1.4306853422        1.3078924432
 H         -1.9353148738       -2.0553526998        1.6140776848
 H          3.6198086553       -2.1205468982       -0.1476136147
 H          5.1857411338       -0.4108809241       -1.0388173162
 H          4.4235584907        1.9244267413       -1.3036801673
 H          2.1041132116        2.5416324368       -0.6736629009
  32
  -51.423956850000003        9.5693750478596570E-003 !
 C         -4.3947442525        0.5295620612       -2.0426127132
 C         -3.5444373385        0.9487057259       -0.8819259126
 C         -3.4041454753        2.4315022837       -0.6895538485
 C         -2.9827265239        0.0500009241       -0.0811118768
 C         -2.1087228424        0.3563596040        1.1080410667
 C         -0.6928635785       -0.0652653273        0.8024590761
 C         -0.2736116992       -1.3503994546        0.9344064118
 O         -1.0377590970       -2.3567054816        1.3779052584
 C          1.1090713255       -1.7866526776        0.6039321968
 O          1.4572439721       -2.9470757365        0.7671744237
 C          2.0101409724       -0.7507123506        0.0808279752
 C          3.3133769965       -1.0924896931       -0.2694040300
 C          4.1807536570       -0.1331928380       -0.7657271395
 C          3.7517773048        1.1760947434       -0.9151925943
 C          2.4561611498        1.5261071827       -0.5680401913
 C          1.5761365247        0.5723381886       -0.0696257236
 C          0.2006168498        0.9738853380        0.2929516000
 O         -0.1683818380        2.1394334038        0.1725512344
 H         -3.9608571780        0.8980605469       -2.9713436789
 H         -5.3906499812        0.9597689553       -1.9478823231
 H         -4.4825193448       -0.5520269367       -2.1032827182
 H         -3.9505369141        2.7556272347        0.1955086874
 H         -3.8010487582        2.9647204617       -1.5486598538
 H         -2.3592061796        2.7097453751       -0.5612823001
 H         -3.1143613559       -1.0025203795       -0.2972781378
 H         -2.4854122901       -0.1568592239        1.9964067403
 H         -2.1075285021        1.4265180421        1.3071679305
 H         -1.9326781841       -2.0596992545        1.6169242485
 H          3.6235755436       -2.1189821639       -0.1432857383
 H          5.1882975468       -0.4083741597       -1.0338205037
 H          4.4236015812        1.9261052387       -1.3013933349
 H          2.1024731450        2.5406473534       -0.6758673507
  32
  -51.423952630000002        9.5267374882921155E-003 !
 C         -4.3284937641        1.5104409730        1.5606111746
 C         -3.5053932219        1.2783421659        0.3297743533
 C         -3.3503527643        2.4686078211       -0.5725104536
 C         -2.9799868582        0.0861749447        0.0696950895
 C         -2.1292667286       -0.2598079267       -1.1256834818
 C         -0.7077220364       -0.4710006946       -0.6664730157
 C         -0.2889107033       -1.6392723965       -0.1144982166
 O         -1.0568880136       -2.7258587294        0.0371256617
 C          1.0975793561       -1.8467119211        0.3809464228
 O          1.4487362319       -2.9280611641        0.8300324609
 C          1.9987015152       -0.6893762380        0.2952041310
 C          3.3007003395       -0.7998978376        0.7752749852
 C          4.1675024287        0.2784105313        0.7061180282
 C          3.7396203640        1.4758442377        0.1548149981
 C          2.4455830075        1.5946870714       -0.3277849680
 C          1.5660600139        0.5199916196       -0.2628330980
 C          0.1917993678        0.6756855999       -0.7835026798
 O         -0.1723914207        1.7314838836       -1.2953786487
 H         -4.4410274040        0.5998889923        2.1432036936
 H         -5.3158354050        1.8771285759        1.2840347633
 H         -3.8552638599        2.2682686653        2.1841219069
 H         -3.9449138055        2.3419084112       -1.4765188694
 H         -2.3115749172        2.6023096597       -0.8687569391
 H         -3.6847085358        3.3715263283       -0.0695181953
 H         -3.1216979989       -0.7165624809        0.7820881993
 H         -2.1362634960        0.5588057496       -1.8431358750
 H         -2.5174811971       -1.1526586343       -1.6217071225
 H         -1.9497866464       -2.5976270126       -0.3269411285
 H          3.6101708534       -1.7434184578        1.1990712062
 H          5.1739773599        0.1826271030        1.0810782865
 H          4.4114591095        2.3176285630        0.0984684616
 H          2.0925114222        2.5178175248       -0.7628681701
  32
  -51.423775999999997        7.9026121995549314E-003 !
 C         -5.0949175372       -0.0721676010       -1.5470045239
 C         -4.1830740981        0.4557579910       -0.4835203663
 C         -4.8491776157        1.1246120859        0.6839978638
 C         -2.8613896635        0.3413476078       -0.5726922217
 C         -1.8975043667        0.8799180243        0.4515075235
 C         -0.5146149430        0.3011841902        0.3212571740
 C         -0.2986468989       -1.0400593051        0.3358643992
 O         -1.2654666136       -1.9544051305        0.4719236112
 C          1.0554262177       -1.6419124201        0.2100098685
 O          1.2095625626       -2.8540456352        0.2366958036
 C          2.1723717296       -0.6992687645        0.0553515419
 C          3.4675330498       -1.1919090128       -0.0785922587
 C          4.5366672449       -0.3236330948       -0.2262642138
 C          4.3194015059        1.0450534883       -0.2395507087
 C          3.0334229908        1.5451644207       -0.1058690568
 C          1.9521775192        0.6840188607        0.0415306484
 C          0.5915740703        1.2455556639        0.1803601686
 O          0.4046779641        2.4604314493        0.1788184498
 H         -4.5363610178       -0.5593469582       -2.3418138786
 H         -5.6754824632        0.7429715337       -1.9768474439
 H         -5.7954797633       -0.7874044095       -1.1181831100
 H         -4.6593026863        0.5784668052        1.6073210542
 H         -5.9231902343        1.1782489861        0.5338676950
 H         -4.4639023799        2.1345456244        0.8144330335
 H         -2.4163155545       -0.1139118258       -1.4475346034
 H         -2.2803740276        0.6975140240        1.4608543276
 H         -1.8062160291        1.9657277746        0.3397405546
 H         -2.1481155029       -1.5420927993        0.5054103609
 H          3.6106067343       -2.2620109340       -0.0644693662
 H          5.5358123620       -0.7157029264       -0.3302064294
 H          5.1489215519        1.7247400825       -0.3536305530
 H          2.8420905682        2.6078695840       -0.1138646594
  32
  -51.423757440000003        7.7489183566247033E-003 !
 C         -5.2076269884        0.0490828874        1.1357487228
 C         -4.2082704747        0.4968413377        0.1150681722
 C         -4.7700496295        1.1121563762       -1.1336104401
 C         -2.8997566785        0.3610550850        0.3070220412
 C         -1.8541104287        0.8208605016       -0.6747152395
 C         -0.4870290704        0.2617664534       -0.3877457644
 C         -0.2668288364       -1.0760333938       -0.3007822639
 O         -1.2159749062       -2.0049979663       -0.4610178164
 C          1.0740896155       -1.6579544801       -0.0264984498
 O          1.2345804725       -2.8681632687        0.0307785623
 C          2.1707247123       -0.6984703480        0.1652823496
 C          3.4520701209       -1.1714403507        0.4345190498
 C          4.5020155172       -0.2869214469        0.6194281349
 C          4.2790641185        1.0784085365        0.5362544275
 C          3.0066838346        1.5589113420        0.2681577392
 C          1.9450079973        0.6813627716        0.0806878277
 C          0.5993455450        1.2222116650       -0.2058452334
 O          0.4084436748        2.4335521280       -0.2892969467
 H         -5.8897920705       -0.6780393517        0.6976167227
 H         -5.8004923099        0.8981013709        1.4727863523
 H         -4.7203761543       -0.3995989479        1.9971984477
 H         -5.8523274946        1.1791832269       -1.0757040586
 H         -4.5090549564        0.5217324140       -2.0112236834
 H         -4.3651628755        2.1125834266       -1.2789640202
 H         -2.5294932967       -0.0525724050        1.2356594144
 H         -1.7713241613        1.9126326855       -0.6430326072
 H         -2.1544067867        0.5569066672       -1.6941865017
 H         -2.0938456718       -1.6035597519       -0.5946685793
 H          3.6002049042       -2.2393105186        0.4932952963
 H          5.4907122737       -0.6637020396        0.8275855390
 H          5.0934626913        1.7706631026        0.6796003311
 H          2.8112546701        2.6185702271        0.1981046855
  32
  -51.423756259999998        7.7392485538240637E-003 !
 C         -5.2064901669       -0.1523089149        1.0498888195
 C         -4.2041728765        0.3782304410        0.0724801519
 C         -4.7629591288        0.8903381279       -1.2241231413
 C         -2.9036063968        0.4028388913        0.3511776930
 C         -1.8424535354        0.9591281963       -0.5590091776
 C         -0.4837830691        0.3566217870       -0.3178329572
 C         -0.2929607866       -0.9884161281       -0.3012938983
 O         -1.2665662264       -1.8860171432       -0.4910766698
 C          1.0381652306       -1.6129449924       -0.0787567588
 O          1.1706014069       -2.8279629505       -0.0776387737
 C          2.1610841704       -0.6885062175        0.1323530343
 C          3.4366701835       -1.2025827014        0.3481855061
 C          4.5108695474       -0.3518875283        0.5513394195
 C          4.3180122842        1.0204920541        0.5404586779
 C          3.0514764463        1.5418529274        0.3264455685
 C          1.9656775513        0.6985094354        0.1209143397
 C          0.6264627573        1.2826065042       -0.1051357443
 O          0.4598791195        2.5004165880       -0.1144683057
 H         -5.9190725151        0.6287807864        1.3111016232
 H         -4.7261541867       -0.5042953028        1.9589554290
 H         -5.7650316558       -0.9746355966        0.6048620291
 H         -4.3303011149        0.3670772952       -2.0755683431
 H         -4.5391702685        1.9496402354       -1.3402717877
 H         -5.8403966924        0.7591702153       -1.2541914492
 H         -2.5539898135        0.0590146448        1.3161020661
 H         -1.7485272361        2.0390846184       -0.4021646560
 H         -2.1259450526        0.8135647302       -1.6055678496
 H         -2.1395342701       -1.4544969398       -0.5598287848
 H          3.5606673118       -2.2751030814        0.3525133385
 H          5.4948013028       -0.7604959591        0.7178083599
 H          5.1514137568        1.6865044321        0.6982473219
 H          2.8792394933        2.6077817668        0.3134180780
  32
  -51.423772200000002        7.8708984918056824E-003 !
 C         -5.2171496912       -0.1352935177        1.0427824272
 C         -4.2092556043        0.3963124618        0.0717313031
 C         -4.7615637744        0.9433734796       -1.2135132107
 C         -2.9068679530        0.3893805504        0.3428404656
 C         -1.8435846217        0.9400366432       -0.5687046806
 C         -0.4840172460        0.3431303583       -0.3202741261
 C         -0.2890429662       -1.0011888792       -0.2937875805
 O         -1.2599208002       -1.9027222946       -0.4788524117
 C          1.0437325047       -1.6200235447       -0.0659002460
 O          1.1797785461       -2.8346388962       -0.0563497673
 C          2.1639124330       -0.6906445501        0.1384853244
 C          3.4412285882       -1.1990485596        0.3574337589
 C          4.5131363799       -0.3435139679        0.5521497300
 C          4.3162991250        1.0280924153        0.5293932123
 C          3.0479635994        1.5438712079        0.3126028761
 C          1.9644165508        0.6956330634        0.1159011051
 C          0.6232677340        1.2739448295       -0.1135118145
 O          0.4527536784        2.4911372976       -0.1302811984
 H         -4.7403389003       -0.5140293822        1.9428372394
 H         -5.7914212888       -0.9385729510        0.5832960114
 H         -5.9150112383        0.6525515427        1.3221150335
 H         -4.4793868772        1.9876914062       -1.3332831088
 H         -5.8448649609        0.8736238389       -1.2248207532
 H         -4.3750146820        0.3973231666       -2.0725708244
 H         -2.5576131560        0.0220065077        1.2991527304
 H         -1.7528269777        2.0216716796       -0.4217281613
 H         -2.1245522208        0.7844248869       -1.6147765413
 H         -2.1330079570       -1.4733212516       -0.5573650579
 H          3.5685574562       -2.2712030197        0.3708272242
 H          5.4985536432       -0.7478449109        0.7207191194
 H          5.1478461724        1.6979463548        0.6803110091
 H          2.8724349435        2.6091968891        0.2916602804
  32
  -51.423752759999999        7.7106378538715006E-003 !
 C         -5.0468782152       -0.1637804539       -1.5008252011
 C         -4.1677852839        0.3155678139       -0.3841290666
 C         -4.8973302304        0.5934333369        0.8948852606
 C         -2.8621391137        0.4924339886       -0.5701331124
 C         -1.8684301186        1.0219427558        0.4265453531
 C         -0.5040284912        0.3992671826        0.2775192647
 C         -0.3325512293       -0.9475569725        0.2288534910
 O         -1.3291486967       -1.8356018282        0.3077380871
 C          1.0035755559       -1.5869605177        0.0908486123
 O          1.1162617627       -2.8029618340        0.0449258429
 C          2.1549665023       -0.6763836753        0.0202505090
 C          3.4373063385       -1.2051355121       -0.0987529516
 C          4.5383051022       -0.3671415791       -0.1654048654
 C          4.3657265689        1.0070471610       -0.1145832585
 C          3.0925494400        1.5430281073        0.0018984554
 C          1.9799511830        0.7124359164        0.0706440219
 C          0.6341749047        1.3118784107        0.1936703656
 O          0.4849595028        2.5315020851        0.2266523776
 H         -4.4804624950       -0.3146557559       -2.4156200197
 H         -5.8325195733        0.5652674496       -1.6925753509
 H         -5.5285306511       -1.1016147244       -1.2282014093
 H         -5.4392860120        1.5342484390        0.8056058692
 H         -4.2312575795        0.6719233457        1.7484296748
 H         -5.6264722270       -0.1907161010        1.0879413157
 H         -2.4430425514        0.2959862092       -1.5496490174
 H         -2.2214303541        0.8766713451        1.4506499408
 H         -1.7440786367        2.1002766760        0.2815242570
 H         -2.2006888200       -1.3946567494        0.3254284787
 H          3.5450857607       -2.2787220083       -0.1376288314
 H          5.5273107278       -0.7869773742       -0.2571404831
 H          5.2201590150        1.6631053042       -0.1651041694
 H          2.9356830526        2.6106257476        0.0424609038
  32
  -51.423771240000001        7.8629067653335702E-003 !
 C         -5.2066015650       -0.1189618105        1.0689573226
 C         -4.2060870952        0.4012623637        0.0841698765
 C         -4.7685390745        0.9380825541       -1.2007060036
 C         -2.9014690221        0.3936071364        0.3434437836
 C         -1.8446589822        0.9330683958       -0.5823753738
 C         -0.4839235736        0.3391849809       -0.3330052601
 C         -0.2879376210       -1.0048116640       -0.3010712849
 O         -1.2582312433       -1.9077971965       -0.4813478711
 C          1.0457162520       -1.6218005322       -0.0727552930
 O          1.1840161412       -2.8361371519       -0.0657013879
 C          2.1633432921       -0.6907890225        0.1376954668
 C          3.4397695893       -1.1974224039        0.3660719825
 C          4.5086680476       -0.3403445483        0.5702946666
 C          4.3096619874        1.0309998362        0.5477866140
 C          3.0425964806        1.5450073266        0.3195192641
 C          1.9620624681        0.6952362599        0.1130116236
 C          0.6225703403        1.2717078443       -0.1301755902
 O          0.4527094353        2.4887011686       -0.1605763658
 H         -5.7885268718       -0.9236590739        0.6214292378
 H         -5.8988030918        0.6737179069        1.3493614970
 H         -4.7219290157       -0.4925825783        1.9670343079
 H         -4.3864119583        0.3874632581       -2.0592008566
 H         -4.4898965283        1.9826357242       -1.3292037147
 H         -5.8517178548        0.8657662128       -1.2037880101
 H         -2.5444863853        0.0332464726        1.2995701603
 H         -1.7532969664        2.0164737730       -0.4503553215
 H         -2.1324552674        0.7632855160       -1.6243479325
 H         -2.1317796446       -1.4801290516       -0.5617933836
 H          3.5686625301       -2.2693050732        0.3794535962
 H          5.4931977553       -0.7431691352        0.7474152842
 H          5.1386971133        1.7019777678        0.7075564685
 H          2.8657483587        2.6100098681        0.2970095723
  32
  -51.423751699999997        7.7019937840926405E-003 !
 C         -5.2071451441        0.0425606881        1.1337105167
 C         -4.2080904816        0.4924911779        0.1136429946
 C         -4.7708636037        1.1008302200       -1.1381259132
 C         -2.8992491568        0.3638858283        0.3087191074
 C         -1.8536269910        0.8249751352       -0.6724218612
 C         -0.4866279396        0.2654991967       -0.3855965104
 C         -0.2680381732       -1.0725369040       -0.2987239832
 O         -1.2197385698       -1.9995113829       -0.4552706806
 C          1.0732540199       -1.6563582091       -0.0307665878
 O          1.2331845596       -2.8668949748        0.0214805025
 C          2.1707592842       -0.6981033791        0.1623900189
 C          3.4520925478       -1.1727292702        0.4288593168
 C          4.5024351505       -0.2894340971        0.6171112396
 C          4.2798506629        1.0763521293        0.5406350930
 C          3.0077689166        1.5585071130        0.2740923463
 C          1.9457188616        0.6821912630        0.0829908349
 C          0.6007245112        1.2247438867       -0.2038085230
 O          0.4110021403        2.4363826496       -0.2859577410
 H         -5.8874927217       -0.6859148446        0.6946795642
 H         -5.8020514607        0.8903917224        1.4706511677
 H         -4.7193438301       -0.4051906672        1.9954227845
 H         -4.3533609406        2.0934055955       -1.2993846125
 H         -5.8514608908        1.1836697288       -1.0726137427
 H         -4.5257358387        0.4955776700       -2.0101430848
 H         -2.5289497308       -0.0438446656        1.2398954527
 H         -1.7708776325        1.9166565568       -0.6399636204
 H         -2.1533711060        0.5607110956       -1.6919299517
 H         -2.0978452868       -1.5950021343       -0.5787304770
 H          3.5996580220       -2.2408841291        0.4834417280
 H          5.4910544800       -0.6675325282        0.8230860291
 H          5.0944674445        1.7676342089        0.6873319179
 H          2.8126640727        2.6185541092        0.2088186169
  32
  -51.423750609999999        7.6931151765317852E-003 !
 C         -5.0584575755       -0.1811530423       -1.4701089612
 C         -4.1677497947        0.2998526806       -0.3633331557
 C         -4.8797438246        0.5460080151        0.9321152715
 C         -2.8690581183        0.5033990805       -0.5713022414
 C         -1.8653652491        1.0385667512        0.4117201225
 C         -0.5034565227        0.4103470962        0.2608564575
 C         -0.3365549824       -0.9368044698        0.2063522681
 O         -1.3369635383       -1.8215187264        0.2751804194
 C          0.9981817546       -1.5804957209        0.0740743727
 O          1.1066070943       -2.7966436319        0.0210715465
 C          2.1535505296       -0.6739389788        0.0179362010
 C          3.4350642979       -1.2069157534       -0.0907727232
 C          4.5395401914       -0.3726342424       -0.1454784476
 C          4.3712556710        1.0020796441       -0.0936346251
 C          3.0990457191        1.5422383019        0.0131365423
 C          1.9830210976        0.7153252160        0.0707429357
 C          0.6385206130        1.3191867970        0.1855086088
 O          0.4932896831        2.5392742824        0.2196717811
 H         -5.8608538056        0.5355415497       -1.6376402721
 H         -5.5178171483       -1.1311598384       -1.2008615483
 H         -4.5065377667       -0.3097099797       -2.3970808274
 H         -5.4532955385        1.4694799519        0.8607544456
 H         -4.2001403365        0.6392080310        1.7733058421
 H         -5.5801670579       -0.2622573536        1.1335910502
 H         -2.4653474314        0.3273504485       -1.5611952429
 H         -2.2100822128        0.9045620732        1.4401121895
 H         -1.7383366721        2.1149686161        0.2549823030
 H         -2.2066641656       -1.3754607704        0.2840466715
 H          3.5393952928       -2.2808011499       -0.1305450079
 H          5.5279344311       -0.7956911724       -0.2283437054
 H          5.2283118846        1.6553412770       -0.1359892628
 H          2.9454421349        2.6102586872        0.0545090342
  32
  -51.423769100000001        7.8451210681340384E-003 !
 C         -5.1000251390       -0.0857804725       -1.5303275736
 C         -4.1853638830        0.4486640699       -0.4726185001
 C         -4.8491250251        1.1103133955        0.7003767342
 C         -2.8635048019        0.3440791666       -0.5710754876
 C         -1.8953998178        0.8875782769        0.4466324355
 C         -0.5134303055        0.3069675950        0.3140250824
 C         -0.2999483599       -1.0346632098        0.3278287985
 O         -1.2685821994       -1.9468730915        0.4650870725
 C          1.0524883843       -1.6391701629        0.1980338879
 O          1.2032250979       -2.8519417206        0.2123214359
 C          2.1721713674       -0.6982456729        0.0536888230
 C          3.4672963710       -1.1932003347       -0.0715698056
 C          4.5392447850       -0.3268187299       -0.2093049625
 C          4.3245655445        1.0422395857       -0.2228959773
 C          3.0385760091        1.5446567619       -0.0983923984
 C          1.9546360055        0.6854642269        0.0403944996
 C          0.5942357989        1.2493580795        0.1714011016
 O          0.4088210479        2.4644258861        0.1634038944
 H         -5.7969488337       -0.8009114171       -1.0955958547
 H         -4.5433332814       -0.5746451435       -2.3253651344
 H         -5.6843007201        0.7258755467       -1.9615053251
 H         -5.9214755856        1.1791319638        0.5446623910
 H         -4.4524425643        2.1136356074        0.8471913394
 H         -4.6723039736        0.5479191261        1.6166692498
 H         -2.4216451202       -0.1073209741       -1.4496170195
 H         -2.2743147834        0.7102923316        1.4583357391
 H         -1.8034479891        1.9726891901        0.3290233831
 H         -2.1501623139       -1.5316907634        0.4987735688
 H          3.6080329058       -2.2635670687       -0.0581163800
 H          5.5384850741       -0.7206859878       -0.3052866345
 H          5.1561468831        1.7204481706       -0.3300607255
 H          2.8492774017        2.6076935562       -0.1074802970
  32
  -51.423748820000000        7.6785569103175501E-003 !
 C         -5.1564112210       -0.3267899603        1.0000779881
 C         -4.1796309416        0.2683494386        0.0298686233
 C         -4.7762061844        0.6266138047       -1.2969834354
 C         -2.9087533985        0.4635850161        0.3740167503
 C         -1.8274031908        1.0932462195       -0.4591384490
 C         -0.4811628574        0.4457600190       -0.2564528863
 C         -0.3193511404       -0.9019991840       -0.3130012780
 O         -1.3122872807       -1.7671849779       -0.5446646734
 C          0.9995719110       -1.5651340880       -0.1304007589
 O          1.1034473919       -2.7819273814       -0.1789362251
 C          2.1463428799       -0.6760080255        0.1025057927
 C          3.4141347935       -1.2266752835        0.2684898055
 C          4.5107946493       -0.4092269064        0.4875496814
 C          4.3482437470        0.9659589199        0.5434129304
 C          3.0893296583        1.5234131011        0.3816832046
 C          1.9812416032        0.7136892493        0.1606220131
 C          0.6502852867        1.3355637011       -0.0054891919
 O          0.5075136752        2.5544509120        0.0642048800
 H         -5.5542471495       -1.2621983831        0.6089992518
 H         -5.9951986665        0.3517568772        1.1459747050
 H         -4.6921791814       -0.5205087229        1.9631377254
 H         -5.3737939989        1.5316664961       -1.1925854690
 H         -5.4380549997       -0.1678681370       -1.6362564162
 H         -4.0254161310        0.8077888673       -2.0597685449
 H         -2.5937245417        0.1993713035        1.3764678227
 H         -1.7189332189        2.1473256264       -0.1831548061
 H         -2.0815043611        1.0656824573       -1.5217619593
 H         -2.1776166848       -1.3115323406       -0.5722740568
 H          3.5142246985       -2.3006335163        0.2212382968
 H          5.4886416965       -0.8457549790        0.6141307756
 H          5.1993445017        1.6061136546        0.7131240012
 H          2.9402724259        2.5921005482        0.4228163030
  32
  -51.423767589999997        7.8325955612227709E-003 !
 C         -5.2176071363       -0.1455574464        1.0389334101
 C         -4.2087136594        0.3896685146        0.0711311374
 C         -4.7589624655        0.9325597782       -1.2164216868
 C         -2.9072684555        0.3897622744        0.3467853346
 C         -1.8436351075        0.9469559311       -0.5603511789
 C         -0.4839907693        0.3481223730       -0.3164323490
 C         -0.2904932557       -0.9964433533       -0.2941423643
 O         -1.2630435413       -1.8959290379       -0.4802070542
 C          1.0418486200       -1.6176637414       -0.0700539834
 O          1.1766561882       -2.8323928017       -0.0640942206
 C          2.1633128720       -0.6900169049        0.1359095629
 C          3.4400460051       -1.2006685846        0.3531574154
 C          4.5128818074       -0.3469668716        0.5508879076
 C          4.3175494924        1.0250103277        0.5329410846
 C          3.0498204867        1.5429608240        0.3174836567
 C          1.9654214681        0.6965526431        0.1173398702
 C          0.6250997662        1.2771884406       -0.1113856432
 O          0.4565190705        2.4946267050       -0.1277363693
 H         -5.7980196178       -0.9410445653        0.5737169883
 H         -5.9103858169        0.6437616815        1.3273583287
 H         -4.7407543748       -0.5348140758        1.9345266007
 H         -5.8425676570        0.8653932446       -1.2277727239
 H         -4.3734444949        0.3804188384       -2.0726384936
 H         -4.4742922626        1.9759224784       -1.3415202416
 H         -2.5595940045        0.0243243736        1.3043681638
 H         -1.7524968064        2.0275191323       -0.4056142902
 H         -2.1245394907        0.7989951654       -1.6074978842
 H         -2.1352233444       -1.4638825704       -0.5565701133
 H          3.5663940766       -2.2728984670        0.3621668455
 H          5.4979191275       -0.7527295728        0.7178403870
 H          5.1500937481        1.6932167437        0.6858500416
 H          2.8758486084        2.6085255071        0.2990392455
  32
  -51.423747319999997        7.6663784642553622E-003 !
 C         -5.1489254026       -0.3064041641        1.0277654722
 C         -4.1784631642        0.2737618679        0.0421681768
 C         -4.7857305990        0.6176743666       -1.2836418063
 C         -2.9043427936        0.4696622616        0.3734200460
 C         -1.8278812976        1.0858442195       -0.4762568614
 C         -0.4808398169        0.4413019825       -0.2695468668
 C         -0.3178140713       -0.9066018600       -0.3188122152
 O         -1.3101570265       -1.7742067471       -0.5438126629
 C          1.0026757291       -1.5671630629       -0.1378687272
 O          1.1102087188       -2.7832286512       -0.1944412484
 C          2.1464696781       -0.6762864945        0.1032109777
 C          3.4135861622       -1.2251344191        0.2801876102
 C          4.5072945520       -0.4061970144        0.5081925784
 C          4.3426525503        0.9688627107        0.5612220357
 C          3.0846247005        1.5246555309        0.3873312687
 C          1.9793880477        0.7133476206        0.1578358393
 C          0.6494909858        1.3336206965       -0.0222908727
 O          0.5065068225        2.5531725930        0.0341594017
 H         -5.5609912383       -1.2398933985        0.6471839548
 H         -5.9791312302        0.3812387316        1.1802893239
 H         -4.6748204139       -0.4989090111        1.9862276814
 H         -5.4371173901       -0.1880676437       -1.6170676109
 H         -4.0408597952        0.8076945364       -2.0501371410
 H         -5.3966120081        1.5140442499       -1.1795119591
 H         -2.5814583323        0.2164838181        1.3762150375
 H         -1.7180929804        2.1442454615       -0.2178150806
 H         -2.0877901687        1.0405428599       -1.5368832163
 H         -2.1762335820       -1.3207583161       -0.5732412794
 H          3.5154325296       -2.2990433619        0.2348056038
 H          5.4843969926       -0.8415318849        0.6444069837
 H          5.1912904070        1.6101804554        0.7388495275
 H          2.9339868987        2.5931994637        0.4262824695
  32
  -51.423767320000003        7.8303580096377966E-003 !
 C         -5.0904147571       -0.0768504570       -1.5526425482
 C         -4.1811905188        0.4590871536       -0.4908739831
 C         -4.8492277947        1.1471687105        0.6641174333
 C         -2.8599006738        0.3342275625       -0.5704750643
 C         -1.8984795081        0.8776148475        0.4536846762
 C         -0.5151091830        0.2993051616        0.3269171761
 C         -0.2980852019       -1.0417057708        0.3447349705
 O         -1.2637714655       -1.9565199082        0.4853884223
 C          1.0558893040       -1.6430720793        0.2153437814
 O          1.2103642525       -2.8553441286        0.2405744911
 C          2.1718438821       -0.7000859077        0.0557897286
 C          3.4666157718       -1.1922312864       -0.0835189200
 C          4.5349432230       -0.3234433299       -0.2343617930
 C          4.3172239233        1.0452048000       -0.2457267359
 C          3.0315413195        1.5447791224       -0.1073540634
 C          1.9510970608        0.6831403849        0.0430901792
 C          0.5905529013        1.2441170689        0.1846482158
 O          0.4031921288        2.4589320720        0.1840382516
 H         -4.5304141170       -0.5826043552       -2.3347274985
 H         -5.6594820844        0.7365785397       -2.0006432886
 H         -5.8011974594       -0.7780346023       -1.1175197250
 H         -5.9212205856        1.2137307998        0.5031766897
 H         -4.4511923089        2.1529411619        0.7892549608
 H         -4.6754280867        0.6062784897        1.5939565555
 H         -2.4132566961       -0.1367006132       -1.4360909113
 H         -2.2833593189        0.6987667385        1.4629670253
 H         -1.8078153252        1.9631818060        0.3385773117
 H         -2.1464186040       -1.5446229981        0.5219952894
 H          3.6101956586       -2.2622192831       -0.0704451765
 H          5.5336875656       -0.7151428323       -0.3431042334
 H          5.1460413491        1.7252207109       -0.3626398607
 H          2.8397335066        2.6073965502       -0.1136125684
  32
  -51.423765899999999        7.8186006622063455E-003 !
 C         -5.1014166963       -0.1106011970       -1.5042503380
 C         -4.1861372114        0.4073015880       -0.4386317169
 C         -4.8540800247        0.9651357038        0.7850962625
 C         -2.8640153399        0.3837662969       -0.5815461456
 C         -1.8874089595        0.9274937617        0.4263104185
 C         -0.5103503332        0.3341232960        0.2930379824
 C         -0.3094802918       -1.0095105428        0.2893166922
 O         -1.2881302113       -1.9142503389        0.4039046149
 C          1.0388202772       -1.6246790969        0.1649852375
 O          1.1785117121       -2.8389168889        0.1652605815
 C          2.1686344202       -0.6922504204        0.0455577053
 C          3.4607443632       -1.1970361252       -0.0717572296
 C          4.5417458954       -0.3384267764       -0.1862713045
 C          4.3392361715        1.0326052336       -0.1854512059
 C          3.0562940729        1.5447542779       -0.0692817034
 C          1.9635668768        0.6934094096        0.0471614358
 C          0.6069017461        1.2678601448        0.1702416526
 O          0.4320873721        2.4845168530        0.1713886917
 H         -5.7287794501       -0.9067597500       -1.1057140365
 H         -4.5435371049       -0.4942288647       -2.3542911995
 H         -5.7580018438        0.6872007575       -1.8484875683
 H         -4.6141690755        2.0212964413        0.8983519039
 H         -4.5186686808        0.4536211664        1.6862367944
 H         -5.9324869059        0.8609347672        0.7137226819
 H         -2.4284765679        0.0074580924       -1.4980535538
 H         -2.2607404011        0.7645938978        1.4419523378
 H         -1.7860156604        2.0104201317        0.2967301553
 H         -2.1665215871       -1.4898355798        0.4181812786
 H          3.5922154871       -2.2686854275       -0.0696009335
 H          5.5385964982       -0.7397556588       -0.2757786708
 H          5.1777536924        1.7047945899       -0.2751160082
 H          2.8762392166        2.6094589852       -0.0658318249
  32
  -51.423762760000002        7.7926646622107380E-003 !
 C         -5.2156745796       -0.1399683213        1.0451033238
 C         -4.2084653564        0.3937036483        0.0746625136
 C         -4.7609691804        0.9362241924       -1.2123630836
 C         -2.9062977331        0.3906313790        0.3464176413
 C         -1.8439843260        0.9437791066       -0.5650359168
 C         -0.4841719512        0.3456102773       -0.3202739909
 C         -0.2898364641       -0.9988509912       -0.2954876690
 O         -1.2614326464       -1.8996154093       -0.4803936461
 C          1.0430270501       -1.6188518258       -0.0705549391
 O          1.1787731250       -2.8336112090       -0.0646534812
 C          2.1634005688       -0.6902913194        0.1367668107
 C          3.4400171666       -1.1996912050        0.3576446530
 C          4.5118706185       -0.3449797762        0.5564849126
 C          4.3157530418        1.0267154255        0.5358435175
 C          3.0482706137        1.5435019646        0.3164604921
 C          1.9647421739        0.6960813321        0.1154587810
 C          0.6243440169        1.2754594308       -0.1158686693
 O          0.4555436704        2.4927225154       -0.1361667717
 H         -5.9042743721        0.6512945939        1.3379771512
 H         -4.7369190550       -0.5330268371        1.9379349211
 H         -5.8005484675       -0.9320115016        0.5798731047
 H         -5.8463990341        0.9048835879       -1.2053134208
 H         -4.4085977545        0.3571108253       -2.0651400904
 H         -4.4436134324        1.9671993157       -1.3587130288
 H         -2.5566909356        0.0247207632        1.3031117451
 H         -1.7522550744        2.0249589650       -0.4147599125
 H         -2.1267599024        0.7914968588       -1.6109920575
 H         -2.1340641785       -1.4691258283       -0.5586266994
 H          3.5669267619       -2.2718881863        0.3685286795
 H          5.4966281300       -0.7499784436        0.7268725305
 H          5.1474408086        1.6956761037        0.6893575909
 H          2.8735064894        2.6088078431        0.2958808185
  32
  -51.423746260000001        7.6577840118626948E-003 !
 C         -5.2086901192       -0.1251876176        1.0659436365
 C         -4.2067788554        0.4018558915        0.0863213966
 C         -4.7667874231        0.9519985914       -1.1939953413
 C         -2.9019314605        0.3868578332        0.3442823075
 C         -1.8452873043        0.9317277106       -0.5791842476
 C         -0.4837524157        0.3391906358       -0.3323554755
 C         -0.2875276972       -1.0048344147       -0.3013646431
 O         -1.2590836388       -1.9064651177       -0.4818994743
 C          1.0459282579       -1.6220816746       -0.0737739318
 O          1.1840832446       -2.8364583617       -0.0675372983
 C          2.1633720857       -0.6911048050        0.1382010922
 C          3.4388420970       -1.1978627669        0.3714120227
 C          4.5076316317       -0.3407584725        0.5762376824
 C          4.3098777049        1.0306779437        0.5477663660
 C          3.0436211899        1.5447455267        0.3151996479
 C          1.9628473308        0.6950110033        0.1094561864
 C          0.6234649715        1.2716223811       -0.1336619547
 O          0.4540469120        2.4886796919       -0.1671549995
 H         -4.7236344390       -0.5326881943        1.9489413379
 H         -5.8114157771       -0.9047867129        0.6022060792
 H         -5.8814665907        0.6737254264        1.3747890804
 H         -5.8523245635        0.9440817230       -1.1706965732
 H         -4.4398115982        0.3618168122       -2.0493494090
 H         -4.4293517637        1.9752034921       -1.3495077127
 H         -2.5452334310        0.0165093417        1.2966075323
 H         -1.7557918680        2.0149980857       -0.4436441160
 H         -2.1327065534        0.7643103795       -1.6217722236
 H         -2.1315416924       -1.4754902699       -0.5595871617
 H          3.5672832140       -2.2697305213        0.3876544729
 H          5.4915635463       -0.7434430880        0.7566965897
 H          5.1392032907        1.7015607770        0.7063776803
 H          2.8675350801        2.6098048183        0.2890800425
  32
  -51.423744910000003        7.6468521949556480E-003 !
 C         -5.1457452286       -0.2872298523        1.0469228514
 C         -4.1783382730        0.2788019905        0.0501386387
 C         -4.7918281973        0.6170186088       -1.2744378648
 C         -2.9011463781        0.4703076750        0.3713776778
 C         -1.8284980724        1.0778329753       -0.4895394764
 C         -0.4804811011        0.4366416628       -0.2796634863
 C         -0.3153910499       -0.9110902028       -0.3257130837
 O         -1.3059329074       -1.7802964365       -0.5527543900
 C          1.0050622117       -1.5696703082       -0.1379689485
 O          1.1138326730       -2.7857659346       -0.1894330304
 C          2.1468298895       -0.6768003903        0.1051663538
 C          3.4139323272       -1.2235991307        0.2884855299
 C          4.5057679241       -0.4027884929        0.5188895321
 C          4.3391737237        0.9721698453        0.5681801485
 C          3.0811938461        1.5259936262        0.3876416935
 C          1.9778633391        0.7127948340        0.1554712091
 C          0.6480090791        1.3310962241       -0.0318454307
 O          0.5037606394        2.5507523706        0.0185805944
 H         -5.9645267720        0.4122368421        1.2073835416
 H         -4.6639110643       -0.4845783341        2.0005062912
 H         -5.5753495481       -1.2153025801        0.6728103527
 H         -5.3856824028        1.5251581866       -1.1768820658
 H         -5.4596968764       -0.1810850724       -1.5918921947
 H         -4.0509425073        0.7840845821       -2.0498801055
 H         -2.5725119807        0.2216054659        1.3733115230
 H         -1.7188997574        2.1390166003       -0.2427482203
 H         -2.0926285402        1.0208504317       -1.5485303316
 H         -2.1719270573       -1.3281928486       -0.5904504399
 H          3.5173319294       -2.2974895904        0.2462424299
 H          5.4828776170       -0.8366557886        0.6596753897
 H          5.1864565784        1.6150610236        0.7467791592
 H          2.9293156121        2.5945389925        0.4224342581
  32
  -51.423762279999998        7.7887075116234647E-003 !
 C         -5.0868939183       -0.0435182333       -1.5731532997
 C         -4.1791805170        0.4765001071       -0.5023170856
 C         -4.8464820872        1.1730686042        0.6480196325
 C         -2.8593964393        0.3307166881       -0.5689159117
 C         -1.9020814664        0.8584316955        0.4676398258
 C         -0.5168213631        0.2862689067        0.3357145011
 C         -0.2942065846       -1.0537993153        0.3542538875
 O         -1.2566775271       -1.9720731729        0.4948878799
 C          1.0628620638       -1.6493030351        0.2304409735
 O          1.2242324686       -2.8601150798        0.2711135432
 C          2.1735627023       -0.7019981974        0.0596470764
 C          3.4701460476       -1.1886226082       -0.0819960136
 C          4.5333787203       -0.3156949324       -0.2451160505
 C          4.3087860769        1.0516819947       -0.2661614589
 C          3.0213492297        1.5458714818       -0.1242255632
 C          1.9460763891        0.6800669061        0.0385054447
 C          0.5840346718        1.2355593808        0.1864674464
 O          0.3916094310        2.4495473556        0.1851041957
 H         -5.6355037769        0.7802917559       -2.0278980684
 H         -5.8155573038       -0.7303659144       -1.1448092652
 H         -4.5285153463       -0.5605944608       -2.3489787173
 H         -4.4164253476        2.1622618373        0.7960359405
 H         -4.7110674307        0.6134767611        1.5730700145
 H         -5.9117125588        1.2794329023        0.4664883408
 H         -2.4108080615       -0.1459056738       -1.4304875427
 H         -2.2900876822        0.6605915963        1.4722954074
 H         -1.8142952440        1.9460488297        0.3714907270
 H         -2.1408940294       -1.5636481927        0.5284857704
 H          3.6193981820       -2.2577737843       -0.0616586314
 H          5.5336145411       -0.7033273109       -0.3550600596
 H          5.1334978549        1.7350301503       -0.3924554779
 H          2.8243203037        2.6074972110       -0.1367426330
  32
  -51.423742079999997        7.6239864873424729E-003 !
 C         -5.1360198641       -0.2758321482        1.0690608389
 C         -4.1770987511        0.2852515975        0.0614099784
 C         -4.8027680939        0.6235274987       -1.2573494017
 C         -2.8959065217        0.4720693380        0.3689559072
 C         -1.8288899712        1.0699222897       -0.5059284206
 C         -0.4798137141        0.4322120556       -0.2929089036
 C         -0.3139106921       -0.9156743881       -0.3309440221
 O         -1.3046520315       -1.7865377531       -0.5505457475
 C          1.0076765748       -1.5720454186       -0.1436771461
 O          1.1195800385       -2.7876882410       -0.2005045875
 C          2.1467418983       -0.6774068102        0.1059840354
 C          3.4128494292       -1.2226101181        0.3006463168
 C          4.5019801889       -0.4002802137        0.5381129502
 C          4.3338560084        0.9746714677        0.5825973871
 C          3.0769782091        1.5269416707        0.3901386077
 C          1.9762673940        0.7121840897        0.1512344913
 C          0.6475136475        1.3289228091       -0.0484617499
 O          0.5028753377        2.5489342520       -0.0087184538
 H         -4.6474154623       -0.4629833137        2.0213048479
 H         -5.5629957329       -1.2092890848        0.7051798967
 H         -5.9570718843        0.4211908976        1.2283955773
 H         -4.0688501863        0.7864669856       -2.0404385454
 H         -5.3921503485        1.5342400912       -1.1553869734
 H         -5.4773506238       -0.1724957799       -1.5665364402
 H         -2.5584561226        0.2262428032        1.3686272671
 H         -1.7191729489        2.1346033269       -0.2748278798
 H         -2.0983997960        0.9970789011       -1.5626299127
 H         -2.1713568582       -1.3356195929       -0.5855079462
 H          3.5173863349       -2.2965215491        0.2622037821
 H          5.4782405404       -0.8329018326        0.6883359654
 H          5.1789910766        1.6186507459        0.7671282745
 H          2.9237948668        2.5954035146        0.4207374436
  32
  -51.423740940000002        7.6147948965836366E-003 !
 C         -5.1950168006        0.0884760179        1.1656273254
 C         -4.2029696009        0.5213182668        0.1314044519
 C         -4.7710643151        1.1536114966       -1.1059262947
 C         -2.8949231280        0.3547378962        0.2999107315
 C         -1.8574322241        0.7938094699       -0.7004137017
 C         -0.4883098424        0.2427188430       -0.4084977664
 C         -0.2621954031       -1.0932172788       -0.3095310045
 O         -1.2047417920       -2.0291125841       -0.4677066974
 C          1.0793441925       -1.6662192158       -0.0191388813
 O          1.2445470865       -2.8750978768        0.0523520668
 C          2.1700748758       -0.6999255161        0.1719884860
 C          3.4510162717       -1.1643116578        0.4577495462
 C          4.4953376706       -0.2731806752        0.6427006418
 C          4.2675577979        1.0901538664        0.5412571854
 C          2.9957685530        1.5620451265        0.2556449889
 C          1.9392572775        0.6778831000        0.0698408844
 C          0.5933723402        1.2096270744       -0.2324526146
 O          0.3984509997        2.4190729229       -0.3330471085
 H         -4.7030597990       -0.3761378050        2.0159022228
 H         -5.8988230561       -0.6217017559        0.7338462797
 H         -5.7648239304        0.9471198754        1.5179584432
 H         -5.8459590485        1.2790249492       -1.0149814899
 H         -4.5704625391        0.5396091262       -1.9834420587
 H         -4.3179304111        2.1290004621       -1.2771195963
 H         -2.5182433804       -0.0745832794        1.2187769579
 H         -1.7756087443        1.8860843510       -0.6936506937
 H         -2.1658538848        0.5072377833       -1.7113979357
 H         -2.0834759572       -1.6372101194       -0.6194900298
 H          3.6028324994       -2.2307909944        0.5310998339
 H          5.4837900083       -0.6433425257        0.8635095070
 H          5.0779081219        1.7875141954        0.6832803004
 H          2.7960143573        2.6200092137        0.1739349134
  32
  -51.423740649999999        7.6124584534433756E-003 !
 C         -5.1952912539        0.0378604569        1.1533382250
 C         -4.2038247932        0.4958453556        0.1294067279
 C         -4.7757159062        1.1196293998       -1.1105130068
 C         -2.8939117146        0.3571759685        0.3094209200
 C         -1.8551230783        0.8226153265       -0.6774833216
 C         -0.4863570701        0.2639200133       -0.3977432192
 C         -0.2669665081       -1.0741350853       -0.3127331745
 O         -1.2174208734       -2.0011974858       -0.4753270869
 C          1.0727824500       -1.6573217142       -0.0359759227
 O          1.2327959613       -2.8678176270        0.0175639644
 C          2.1681358589       -0.6983857169        0.1657906425
 C          3.4461995335       -1.1720320822        0.4493450116
 C          4.4952257056       -0.2882093778        0.6422792024
 C          4.2751566304        1.0770333829        0.5507499331
 C          3.0060982033        1.5582568817        0.2684735123
 C          1.9448390084        0.6814927217        0.0750313727
 C          0.6015168181        1.2233089570       -0.2210718560
 O          0.4136321082        2.4344332837       -0.3147393535
 H         -5.7723276266        0.8866535391        1.5178643731
 H         -4.7023007613       -0.4362376048        1.9978315651
 H         -5.8928365611       -0.6701179599        0.7081827820
 H         -4.5856357017        0.4948481577       -1.9826673091
 H         -4.3191853124        2.0905099287       -1.2948512014
 H         -5.8490884153        1.2514078857       -1.0133407645
 H         -2.5170120260       -0.0667249997        1.2307941138
 H         -1.7732059903        1.9143474668       -0.6426009346
 H         -2.1607225497        0.5610701481       -1.6959495398
 H         -2.0938263135       -1.5962899498       -0.6088046493
 H          3.5921686592       -2.2398487666        0.5136433367
 H          5.4810520555       -0.6654662341        0.8628295859
 H          5.0890725798        1.7686922189        0.6995463353
 H          2.8126978433        2.6179346994        0.1928572852
  32
  -51.423743739999999        7.6373905776165023E-003 !
 C         -5.1954083265        0.0706059693        1.1592530474
 C         -4.2034101065        0.5124550121        0.1287727875
 C         -4.7720142339        1.1443515759       -1.1084436623
 C         -2.8948154146        0.3537680826        0.3007555326
 C         -1.8564632187        0.8020239699       -0.6946001908
 C         -0.4873779191        0.2500798282       -0.4045212721
 C         -0.2634790629       -1.0865234032       -0.3104722705
 O         -1.2091078770       -2.0187099316       -0.4723150795
 C          1.0765806400       -1.6631728431       -0.0216865464
 O          1.2393376644       -2.8725215796        0.0472129244
 C          2.1693489638       -0.6993780534        0.1707562077
 C          3.4497155698       -1.1671000659        0.4534951785
 C          4.4965857983       -0.2786979975        0.6370987805
 C          4.2714767186        1.0852680540        0.5392067558
 C          2.9998148658        1.5606073175        0.2586045004
 C          1.9410803792        0.6791854701        0.0727335619
 C          0.5956267004        1.2147206601       -0.2249770457
 O          0.4021773398        2.4249545111       -0.3187967092
 H         -5.7687291226        0.9255973459        1.5150845307
 H         -4.7032352247       -0.3966303596        2.0081761350
 H         -5.8960833564       -0.6397977761        0.7225971360
 H         -4.3307242989        2.1262513778       -1.2712993846
 H         -5.8485919185        1.2557427488       -1.0232990795
 H         -4.5582059061        0.5381360207       -1.9881154135
 H         -2.5186686710       -0.0755645462        1.2197796803
 H         -1.7761776373        1.8942275142       -0.6801813538
 H         -2.1623822445        0.5215211560       -1.7080898737
 H         -2.0866215941       -1.6208407494       -0.6174435395
 H          3.5994651446       -2.2340598324        0.5236354026
 H          5.4844120972       -0.6514785634        0.8560658908
 H          5.0834754459        1.7805277725        0.6814872451
 H          2.8025176145        2.6191983299        0.1782655283
  32
  -51.423739359999999        7.6020739939150466E-003 !
 C         -5.1421717587       -0.3139995051        1.0327923579
 C         -4.1758210505        0.2697000174        0.0452997459
 C         -4.7862037864        0.6090280996       -1.2802360286
 C         -2.9022413574        0.4715705634        0.3750890391
 C         -1.8280136301        1.0900315617       -0.4758090553
 C         -0.4808349345        0.4448560681       -0.2715827043
 C         -0.3187592060       -0.9030701009       -0.3235072801
 O         -1.3117404260       -1.7692346323       -0.5511956709
 C          1.0007106727       -1.5652094814       -0.1416424251
 O          1.1068617160       -2.7813524982       -0.1989899327
 C          2.1450024322       -0.6757815122        0.1022214140
 C          3.4112156604       -1.2261748387        0.2806221328
 C          4.5054968723       -0.4086435740        0.5109619756
 C          4.3422507294        0.9665471718        0.5650399947
 C          3.0850437913        1.5238679048        0.3899739343
 C          1.9792447489        0.7139951720        0.1580635388
 C          0.6501283811        1.3358445976       -0.0227111770
 O          0.5082663687        2.5554811474        0.0350873670
 H         -5.9735860798        0.3712903210        1.1886931268
 H         -4.6648553569       -0.5066017518        1.9895461614
 H         -5.5529150425       -1.2479330425        0.6521792160
 H         -5.4281231486       -0.2033156317       -1.6151997221
 H         -4.0433508670        0.8082715589       -2.0460645339
 H         -5.4073197639        1.4978699367       -1.1754172685
 H         -2.5777057385        0.2208895381        1.3779812306
 H         -1.7178984032        2.1479915367       -0.2157561272
 H         -2.0896172618        1.0460868128       -1.5359888434
 H         -2.1773363272       -1.3147142213       -0.5793430249
 H          3.5118913173       -2.3001636077        0.2344055701
 H          5.4820077480       -0.8451352380        0.6476196969
 H          5.1914644093        1.6068536064        0.7435463691
 H          2.9355687993        2.5925686449        0.4291408819
  32
  -51.423761630000001        7.7833520730945897E-003 !
 C         -5.2268320467       -0.1519771441        1.0205329378
 C         -4.2109019580        0.3859491448        0.0613509157
 C         -4.7519903663        0.9265696379       -1.2313669139
 C         -2.9118437192        0.3903335325        0.3482720298
 C         -1.8429311769        0.9525349219       -0.5493754351
 C         -0.4845082291        0.3507865453       -0.3056054484
 C         -0.2916125962       -0.9939151386       -0.2867409621
 O         -1.2643350792       -1.8929256320       -0.4742414176
 C          1.0410749374       -1.6162384366       -0.0669133798
 O          1.1745226044       -2.8311376940       -0.0611747019
 C          2.1640494844       -0.6898026253        0.1351201590
 C          3.4418482984       -1.2013371872        0.3443838288
 C          4.5162313638       -0.3485781945        0.5371003718
 C          4.3216436179        1.0235274879        0.5222224497
 C          3.0529926159        1.5424362924        0.3150290603
 C          1.9668862076        0.6969115392        0.1201149599
 C          0.6253644378        1.2785919963       -0.0984601722
 O          0.4567186801        2.4961389234       -0.1069288019
 H         -5.8051105666       -0.9448702836        0.5482709390
 H         -5.9204569688        0.6373204182        1.3070531628
 H         -4.7565553250       -0.5450006027        1.9179191347
 H         -4.4555385761        1.9657619845       -1.3630608740
 H         -5.8362544693        0.8711759612       -1.2445357038
 H         -4.3711647697        0.3636107882       -2.0825505949
 H         -2.5710675888        0.0263530314        1.3088634520
 H         -1.7508275767        2.0316977366       -0.3853498915
 H         -2.1193790433        0.8133449904       -1.5987764078
 H         -2.1367680421       -1.4611632012       -0.5492651546
 H          3.5676487293       -2.2736718972        0.3511674003
 H          5.5017991536       -0.7553202035        0.6984975302
 H          5.1551085265        1.6913400849        0.6724927995
 H          2.8791185629        2.6081144118        0.3000906075
  32
  -51.423739050000002        7.5995806155237933E-003 !
 C         -5.0850424837       -0.0297566084       -1.5801565732
 C         -4.1781188475        0.4869100271       -0.5068796591
 C         -4.8446581271        1.1964321472        0.6357583905
 C         -2.8598680021        0.3253615534       -0.5636554783
 C         -1.9037701100        0.8484285362        0.4767020582
 C         -0.5177251926        0.2792344572        0.3411944759
 C         -0.2914031473       -1.0601066439        0.3665861818
 O         -1.2500037714       -1.9801893203        0.5211391554
 C          1.0657303007       -1.6530285090        0.2308949681
 O          1.2287418049       -2.8639114632        0.2609656487
 C          2.1743939242       -0.7031796619        0.0608959211
 C          3.4726587833       -1.1868571277       -0.0759783034
 C          4.5338440419       -0.3116761025       -0.2397831079
 C          4.3054767737        1.0550035513       -0.2675446604
 C          3.0163943119        1.5462158307       -0.1305753796
 C          1.9432020624        0.6781189178        0.0339788241
 C          0.5795927257        1.2305983384        0.1793464857
 O          0.3833831548        2.4439087369        0.1669626827
 H         -4.5280887330       -0.5597649411       -2.3482485570
 H         -5.6197764807        0.7974470703       -2.0450314638
 H         -5.8253900229       -0.7039486891       -1.1517925754
 H         -4.3899338344        2.1724523164        0.7969985008
 H         -4.7408390580        0.6275217194        1.5593881500
 H         -5.9034871816        1.3332480221        0.4372169039
 H         -2.4112671382       -0.1627271343       -1.4186759263
 H         -2.2920454321        0.6446041843        1.4800327984
 H         -1.8175890666        1.9366117899        0.3860384804
 H         -2.1350949884       -1.5750400865        0.5632864024
 H          3.6248080473       -2.2554648605       -0.0512874254
 H          5.5354635187       -0.6967661280       -0.3458878931
 H          5.1286613338        1.7399662780       -0.3951272157
 H          2.8163553578        2.6072222579       -0.1483850758
  32
  -51.423735180000001        7.5685223448505026E-003 !
 C         -5.1986886102        0.0700734493        1.1561049068
 C         -4.2044822565        0.5033881492        0.1241897726
 C         -4.7727842987        1.1029517940       -1.1293680058
 C         -2.8951862000        0.3661166204        0.3089824053
 C         -1.8553010492        0.8122736557       -0.6855515296
 C         -0.4872240064        0.2566968878       -0.3971060592
 C         -0.2655473709       -1.0804615350       -0.3057250431
 O         -1.2145141802       -2.0100670413       -0.4630056740
 C          1.0759862107       -1.6602062049       -0.0299181180
 O          1.2387643054       -2.8702004113        0.0256701236
 C          2.1700322926       -0.6985583641        0.1662372736
 C          3.4507387841       -1.1688207211        0.4434828757
 C          4.4979625634       -0.2821414021        0.6330412054
 C          4.2732858260        1.0826677079        0.5460903908
 C          3.0017952040        1.5604727435        0.2692224218
 C          1.9426154087        0.6807454546        0.0776374012
 C          0.5976487106        1.2190238129       -0.2172821596
 O          0.4060774296        2.4297278167       -0.3083290501
 H         -4.7075731322       -0.3757715940        2.0168586677
 H         -5.8896539940       -0.6551852971        0.7285966554
 H         -5.7827279477        0.9259482013        1.4918114961
 H         -4.3366140953        2.0831889176       -1.3145421387
 H         -5.8502764748        1.2102770952       -1.0495115798
 H         -4.5541713138        0.4768778118       -1.9937917855
 H         -2.5194328919       -0.0391186783        1.2390567834
 H         -1.7719650670        1.9043734934       -0.6684768011
 H         -2.1616146365        0.5342338300       -1.6994141702
 H         -2.0921315080       -1.6084047614       -0.5972647368
 H          3.6003520619       -2.2362721262        0.5057114546
 H          5.4860462546       -0.6567627340        0.8478718556
 H          5.0858141079        1.7764771284        0.6929120347
 H          2.8046316472        2.6196506395        0.1964656314
  32
  -51.423712530000003        7.3892758261770494E-003 !
 C         -5.0749242149        0.0180884762       -1.6124540031
 C         -4.1709606037        0.5244336875       -0.5319312235
 C         -4.8292280984        1.2934594001        0.5762382243
 C         -2.8603194670        0.3041483836       -0.5511255536
 C         -1.9119867369        0.8098728925        0.5052347465
 C         -0.5222910008        0.2521102439        0.3629717468
 C         -0.2833083966       -1.0847258892        0.3983745001
 O         -1.2315195097       -2.0129344423        0.5677183168
 C          1.0785914700       -1.6661002979        0.2592128411
 O          1.2538659475       -2.8747589834        0.3050130983
 C          2.1762627717       -0.7079604949        0.0668672233
 C          3.4777738513       -1.1809701160       -0.0763447919
 C          4.5291410827       -0.2977681554       -0.2591886676
 C          4.2874594530        1.0662892616       -0.3000932604
 C          2.9949840696        1.5468864617       -0.1576984331
 C          1.9315699102        0.6706552999        0.0260909911
 C          0.5640679692        1.2117925089        0.1771526386
 O          0.3557326829        2.4228102069        0.1493171755
 H         -5.8435747346       -0.6245854391       -1.1852736762
 H         -4.5217018512       -0.5438673292       -2.3603064915
 H         -5.5747845292        0.8530609312       -2.1015021137
 H         -4.3623000442        2.2707518116        0.6898007092
 H         -4.7279131056        0.7695929925        1.5261881006
 H         -5.8866962046        1.4330918148        0.3728517636
 H         -2.4124635742       -0.2271612130       -1.3802091120
 H         -2.3048829870        0.5809787549        1.5019169720
 H         -1.8335270492        1.9002916489        0.4398752927
 H         -2.1202001471       -1.6179435434        0.6186536710
 H          3.6400293795       -2.2477908685       -0.0403421557
 H          5.5334775114       -0.6745946846       -0.3692869759
 H          5.1028465565        1.7575153068       -0.4428505150
 H          2.7846577677        2.6056407811       -0.1862189446
  32
  -51.423735020000002        7.5672410179243562E-003 !
 C         -5.0343884496       -0.1650099090       -1.5136531923
 C         -4.1655056658        0.3196942610       -0.3911377277
 C         -4.9075403849        0.5970422097        0.8805480140
 C         -2.8581523535        0.4941601008       -0.5662024840
 C         -1.8689465801        1.0171093003        0.4393546383
 C         -0.5032896719        0.3983113173        0.2856996333
 C         -0.3323233516       -0.9484490158        0.2328136972
 O         -1.3311756056       -1.8342287124        0.3089524959
 C          1.0035517695       -1.5878498630        0.0956510114
 O          1.1177074082       -2.8039082966        0.0543844482
 C          2.1541160614       -0.6764050322        0.0210379103
 C          3.4359924435       -1.2048598150       -0.1042133752
 C          4.5366228354       -0.3668701479       -0.1753511132
 C          4.3644082625        1.0072151159       -0.1219138403
 C          3.0917501746        1.5430105814        0.0011531857
 C          1.9793903610        0.7124556719        0.0730660608
 C          0.6339675095        1.3117321616        0.2005340260
 O          0.4838222323        2.5313329796        0.2316085804
 H         -5.8169172193        0.5633133114       -1.7196998185
 H         -5.5200432688       -1.1001957452       -1.2389404557
 H         -4.4587649918       -0.3240941375       -2.4213867102
 H         -4.2463488756        0.7582361906        1.7257119207
 H         -5.5789306557       -0.2285214980        1.1092826791
 H         -5.5170187412        1.4912555567        0.7558127497
 H         -2.4324270056        0.2985320473       -1.5428689079
 H         -2.2230276646        0.8561180908        1.4609005058
 H         -1.7471066676        2.0973150021        0.3073099281
 H         -2.2006476573       -1.3886051611        0.3250897250
 H          3.5435429639       -2.2784709352       -0.1426128372
 H          5.5252199323       -0.7866282659       -0.2717053434
 H          5.2184600978        1.6634445032       -0.1763270436
 H          2.9350656644        2.6105445908        0.0431057448
  32
  -51.423735000000001        7.5670808672976281E-003 !
 C         -5.0343202400       -0.1585588858       -1.5140453466
 C         -4.1634035399        0.3142738357       -0.3879511452
 C         -4.9008846582        0.5637447806        0.8922393018
 C         -2.8586536026        0.5036074736       -0.5672622649
 C         -1.8687720390        1.0213602530        0.4397524237
 C         -0.5038184131        0.4012504410        0.2845757734
 C         -0.3338990312       -0.9454003914        0.2276744891
 O         -1.3335814515       -1.8307660347        0.2983385588
 C          1.0019091695       -1.5857661283        0.0925159036
 O          1.1146258700       -2.8019073570        0.0504442153
 C          2.1533513839       -0.6753399620        0.0201506322
 C          3.4350059289       -1.2045379735       -0.1039338777
 C          4.5361246442       -0.3669847644       -0.1741329255
 C          4.3644195331        1.0072322660       -0.1217845574
 C          3.0920276068        1.5436329444        0.0010727750
 C          1.9792839859        0.7135415646        0.0729357820
 C          0.6343749259        1.3137454712        0.2022987949
 O          0.4858030720        2.5333196969        0.2395915970
 H         -4.4649173028       -0.2839013843       -2.4308619134
 H         -5.8320119231        0.5602529984       -1.6933380509
 H         -5.4996621490       -1.1092648356       -1.2581606402
 H         -4.2369061710        0.6876679258        1.7418088076
 H         -5.5848380912       -0.2577690329        1.0957804869
 H         -5.4953923014        1.4714002816        0.7959974368
 H         -2.4364199967        0.3259992397       -1.5490235712
 H         -2.2233083205        0.8589746186        1.4608627476
 H         -1.7452314051        2.1017147867        0.3102053869
 H         -2.2028608697       -1.3845647589        0.3107388754
 H          3.5422875376       -2.2781525070       -0.1436307555
 H          5.5245143160       -0.7872209731       -0.2701251160
 H          5.2188349048        1.6629898043       -0.1761892989
 H          2.9357754226        2.6112275000        0.0438459073
  32
  -51.423761550000002        7.7826931967467129E-003 !
 C         -5.0834095492       -0.0474624266       -1.5724132605
 C         -4.1782068388        0.4734365743       -0.5000360488
 C         -4.8483613732        1.1621075916        0.6531918460
 C         -2.8579339752        0.3335330611       -0.5672491671
 C         -1.9017650340        0.8599249682        0.4712489574
 C         -0.5162356574        0.2891112651        0.3367381626
 C         -0.2945988338       -1.0510959566        0.3556687445
 O         -1.2583481161       -1.9673268831        0.5006092915
 C          1.0608604943       -1.6481991712        0.2237583377
 O          1.2201262583       -2.8596130072        0.2526313538
 C          2.1727872111       -0.7013712016        0.0587123490
 C          3.4693133222       -1.1890666876       -0.0798910071
 C          4.5337900193       -0.3170623872       -0.2388805274
 C          4.3104919179        1.0505776125       -0.2591091209
 C          3.0231249975        1.5458448224       -0.1207022837
 C          1.9465311599        0.6809136269        0.0383364098
 C          0.5845522616        1.2377133115        0.1831654894
 O          0.3923547301        2.4517509129        0.1763365599
 H         -5.8049407772       -0.7436792093       -1.1472692693
 H         -4.5222925745       -0.5541601322       -2.3531431102
 H         -5.6402749207        0.7744379839       -2.0200195584
 H         -4.7033824487        0.6030997412        1.5771033650
 H         -5.9153623604        1.2572915092        0.4757460181
 H         -4.4281333634        2.1556942995        0.8001212393
 H         -2.4079157666       -0.1391782805       -1.4302138935
 H         -2.2889995025        0.6580822540        1.4755193538
 H         -1.8152025885        1.9477600517        0.3780152998
 H         -2.1413791528       -1.5562699720        0.5357062544
 H          3.6172470642       -2.2583969927       -0.0608042311
 H          5.5340748913       -0.7053661429       -0.3457720510
 H          5.1362489432        1.7331505191       -0.3826352888
 H          2.8269514037        2.6076258294       -0.1336847079
  32
  -51.423761349999999        7.7810462498539559E-003 !
 C         -5.2246404704       -0.1512933019        1.0235246078
 C         -4.2101181880        0.3837116849        0.0612939333
 C         -4.7528264602        0.9147675228       -1.2346520933
 C         -2.9112931132        0.3941210640        0.3492110868
 C         -1.8426315818        0.9550000746       -0.5493967385
 C         -0.4845187507        0.3524103663       -0.3057275861
 C         -0.2920801027       -0.9923891633       -0.2879489518
 O         -1.2648878833       -1.8912086624       -0.4760373550
 C          1.0403245027       -1.6152060839       -0.0681977940
 O          1.1736545491       -2.8301274492       -0.0642099690
 C          2.1637245893       -0.6893844729        0.1345032050
 C          3.4414018801       -1.2016575819        0.3422206436
 C          4.5161449689       -0.3493864487        0.5358527771
 C          4.3216201635        1.0226982570        0.5241350573
 C          3.0529518836        1.5422805999        0.3183233007
 C          1.9667222876        0.6973891991        0.1218897142
 C          0.6255051465        1.2796708399       -0.0968006046
 O          0.4572711122        2.4972525915       -0.1042396390
 H         -4.7540383701       -0.5293766538        1.9271576050
 H         -5.7944022739       -0.9549208159        0.5591459306
 H         -5.9259737780        0.6353879693        1.2981002560
 H         -4.3595426274        0.3568372443       -2.0835969193
 H         -4.4711916167        1.9582607812       -1.3657662775
 H         -5.8362176260        0.8433863993       -1.2528326402
 H         -2.5703299323        0.0367572642        1.3122737421
 H         -1.7498006183        2.0341337095       -0.3855906816
 H         -2.1195210643        0.8159902150       -1.5986666960
 H         -2.1374906219       -1.4596360721       -0.5500256500
 H          3.5666336720       -2.2740270632        0.3478875750
 H          5.5016653581       -0.7566687079        0.6959160943
 H          5.1552859508        1.6900580040        0.6747508906
 H          2.8795382816        2.6080043509        0.3054859573
  32
  -51.423730890000002        7.5342417279377297E-003 !
 C         -5.0422381274       -0.1945048629       -1.4809055988
 C         -4.1607208587        0.2918779184       -0.3692654106
 C         -4.8779513512        0.5226422422        0.9259974318
 C         -2.8634646270        0.5096402709       -0.5724562788
 C         -1.8661117040        1.0438696937        0.4176819147
 C         -0.5034234778        0.4168887158        0.2681084144
 C         -0.3400495543       -0.9304594172        0.2066477542
 O         -1.3453531957       -1.8102296846        0.2667420242
 C          0.9931277727       -1.5770294165        0.0765161478
 O          1.0997664721       -2.7934862874        0.0273056311
 C          2.1498480819       -0.6723888610        0.0165003187
 C          3.4293138494       -1.2077757945       -0.1034919044
 C          4.5352888929       -0.3757964574       -0.1626575365
 C          4.3706478976        0.9989754647       -0.1024881622
 C          3.1004552347        1.5415108973        0.0161383681
 C          1.9828429335        0.7170671211        0.0766440183
 C          0.6402772141        1.3236295094        0.2010328776
 O          0.4980187635        2.5437190357        0.2465536704
 H         -5.4759875120       -1.1598783598       -1.2237413701
 H         -4.4894590286       -0.2966909966       -2.4107241811
 H         -5.8629688973        0.5037443250       -1.6364402898
 H         -5.4454583038        1.4506935368        0.8655856403
 H         -4.2018771584        0.5991085641        1.7720004104
 H         -5.5838333696       -0.2842741343        1.1115635490
 H         -2.4558216067        0.3449629615       -1.5625937576
 H         -2.2151304891        0.9028754559        1.4437992432
 H         -1.7403493967        2.1211320403        0.2671723754
 H         -2.2118083342       -1.3560387344        0.2626322913
 H          3.5308911458       -2.2817121776       -0.1491684681
 H          5.5220135183       -0.8007385408       -0.2553028186
 H          5.2288804904        1.6504649673       -0.1473711679
 H          2.9497023450        2.6096689489        0.0642440467
  32
  -51.423761300000002        7.7806345676193454E-003 !
 C         -5.1986203755        0.0271780976        1.1410770467
 C         -4.2055080593        0.4860286558        0.1191928546
 C         -4.7768554291        1.0854290784       -1.1330918238
 C         -2.8954108338        0.3680766721        0.3121070848
 C         -1.8529963960        0.8341504088       -0.6705974094
 C         -0.4859100776        0.2722233132       -0.3886914715
 C         -0.2691432120       -1.0665087368       -0.3076080059
 O         -1.2219067297       -1.9913409633       -0.4699076274
 C          1.0702623223       -1.6533400455       -0.0371559649
 O          1.2280349235       -2.8642614380        0.0121499233
 C          2.1688010187       -0.6973791781        0.1613402754
 C          3.4482823755       -1.1748857990        0.4315670434
 C          4.4997812296       -0.2939209759        0.6242554867
 C          4.2805148882        1.0723363715        0.5468912568
 C          3.0101391201        1.5573543592        0.2771782134
 C          1.9466763203        0.6834399969        0.0828939618
 C          0.6028231863        1.2290750379       -0.2038179957
 O          0.4150868660        2.4412417913       -0.2828319233
 H         -5.8002954323        0.8693764740        1.4797412155
 H         -4.7052885458       -0.4166914686        2.0015852096
 H         -5.8732728396       -0.7069646191        0.7030182838
 H         -5.8515904032        1.2110114112       -1.0417220931
 H         -4.5798382311        0.4474927487       -1.9941497827
 H         -4.3268302627        2.0565860372       -1.3317578303
 H         -2.5208058340       -0.0368924836        1.2427835253
 H         -1.7689765016        1.9256402808       -0.6323930836
 H         -2.1557207078        0.5749704225       -1.6903592172
 H         -2.0988799772       -1.5846817414       -0.5951162029
 H          3.5933708682       -2.2433737368        0.4862772140
 H          5.4868771864       -0.6742714613        0.8335958882
 H          5.0962630637        1.7618173612        0.6959001821
 H          2.8175034690        2.6178544653        0.2119121621
  32
  -51.423758079999999        7.7541680479314675E-003 !
 C         -5.2078147790        0.0540549428        1.1361590709
 C         -4.2083806402        0.4966034789        0.1132732184
 C         -4.7702076442        1.1038802223       -1.1394472588
 C         -2.8997933522        0.3636607645        0.3069845569
 C         -1.8539355006        0.8198925426       -0.6762000610
 C         -0.4869529570        0.2616997891       -0.3869295018
 C         -0.2667901294       -1.0760059647       -0.2991983336
 O         -1.2165240426       -2.0045469924       -0.4585750158
 C          1.0743620635       -1.6579287476       -0.0261327690
 O          1.2349477541       -2.8681577173        0.0310000574
 C          2.1710763486       -0.6983331283        0.1647872246
 C          3.4529825476       -1.1712495561        0.4315160804
 C          4.5028320223       -0.2866433000        0.6163734222
 C          4.2793048865        1.0787409712        0.5355058418
 C          3.0065039459        1.5591844091        0.2693565882
 C          1.9448831188        0.6815505046        0.0819521161
 C          0.5989022304        1.2223940604       -0.2033536918
 O          0.4073713429        2.4338022828       -0.2843224331
 H         -4.7204344248       -0.3886614171        2.0006685045
 H         -5.8887941068       -0.6767268582        0.7019966711
 H         -5.8018522353        0.9047051674        1.4674575833
 H         -4.5148408352        0.5046322992       -2.0126306999
 H         -4.3607739559        2.1008210813       -1.2946299157
 H         -5.8517718567        1.1771608272       -1.0794350043
 H         -2.5296790872       -0.0447802539        1.2379425322
 H         -1.7710601464        1.9117271051       -0.6480234095
 H         -2.1540338866        0.5522306767       -1.6947587210
 H         -2.0943386928       -1.6021257710       -0.5898253147
 H          3.6012316270       -2.2391562994        0.4901125484
 H          5.4919437586       -0.6634293765        0.8225599963
 H          5.0936563849        1.7710975874        0.6787813383
 H          2.8104385089        2.6188811444        0.2017941938
  32
  -51.423743379999998        7.6344816666834856E-003 !
 C         -5.1579904958       -0.3137000117        1.0069801325
 C         -4.1799440279        0.2710714375        0.0316827059
 C         -4.7767823990        0.6171681724       -1.2983763536
 C         -2.9091188986        0.4688371693        0.3741965449
 C         -1.8273751212        1.0899471984       -0.4650240299
 C         -0.4814047788        0.4432012559       -0.2581994993
 C         -0.3186336842       -0.9045188196       -0.3125091595
 O         -1.3104911869       -1.7715139331       -0.5421595994
 C          1.0011851476       -1.5661636608       -0.1309095433
 O          1.1067169612       -2.7826125798       -0.1819490314
 C          2.1468959374       -0.6759985697        0.1031868427
 C          3.4152017448       -1.2253886152        0.2694430448
 C          4.5109061454       -0.4069959642        0.4897463946
 C          4.3468497996        0.9679654488        0.5467658116
 C          3.0874737442        1.5242572324        0.3844098022
 C          1.9804136327        0.7135310935        0.1617907128
 C          0.6493288330        1.3342943187       -0.0076978674
 O          0.5061095528        2.5533908138        0.0575580144
 H         -4.6919068125       -0.5094061762        1.9686959907
 H         -5.5662763337       -1.2459878169        0.6193535667
 H         -5.9901847251        0.3725760604        1.1551162435
 H         -5.4201885583       -0.1907999782       -1.6410365344
 H         -4.0263408271        0.8140807318       -2.0574023759
 H         -5.3934882383        1.5094676098       -1.1967274313
 H         -2.5936479406        0.2139184764        1.3789067808
 H         -1.7177308027        2.1463362417       -0.1982958071
 H         -2.0820300885        1.0528385800       -1.5271708917
 H         -2.1765787694       -1.3183835220       -0.5731947390
 H          3.5164345558       -2.2992342097        0.2210791673
 H          5.4891388218       -0.8427024224        0.6162430671
 H          5.1970839088        1.6089146969        0.7179772256
 H          2.9373122099        2.5927710619        0.4261457656
  32
  -51.423743070000000        7.6319776590098743E-003 !
 C         -5.1365032913       -0.3072692932        1.0476815231
 C         -4.1734605828        0.2691329407        0.0526492600
 C         -4.7876740940        0.5964629239       -1.2742939955
 C         -2.8993675328        0.4759484419        0.3772587413
 C         -1.8285622484        1.0890850868       -0.4817190633
 C         -0.4808779460        0.4449789427       -0.2777594371
 C         -0.3188704126       -0.9029600282       -0.3277710699
 O         -1.3121491156       -1.7694372119       -0.5523498888
 C          1.0011148405       -1.5648121263       -0.1482787783
 O          1.1083584524       -2.7805496206       -0.2112285610
 C          2.1442866274       -0.6754208287        0.1007881595
 C          3.4096125118       -1.2259327983        0.2849814054
 C          4.5025419995       -0.4086426132        0.5225108290
 C          4.3389548260        0.9665078698        0.5770112196
 C          3.0828399969        1.5240238834        0.3948379064
 C          1.9782596317        0.7143319630        0.1566077352
 C          0.6500930358        1.3363739826       -0.0307727455
 O          0.5090130720        2.5563320440        0.0206987555
 H         -4.6572848048       -0.4878711080        2.0058677987
 H         -5.5446090841       -1.2466975484        0.6776797201
 H         -5.9699704118        0.3770025725        1.1971714385
 H         -5.3971347023        1.4946436054       -1.1791909316
 H         -5.4412868469       -0.2127626209       -1.5937887565
 H         -4.0469297345        0.7755539406       -2.0472302695
 H         -2.5716183087        0.2340847965        1.3811209165
 H         -1.7177467253        2.1485724786       -0.2285557899
 H         -2.0941356710        1.0386968864       -1.5406329045
 H         -2.1779144849       -1.3155344938       -0.5804346417
 H          3.5107360244       -2.2997998598        0.2375116987
 H          5.4783029909       -0.8452933481        0.6640248712
 H          5.1870830154        1.6066200133        0.7612142583
 H          2.9333086627        2.5926901498        0.4341414644
  32
  -51.423728070000003        7.5117922385115089E-003 !
 C         -5.0749394320       -0.2030383243       -1.4412546458
 C         -4.1742428549        0.3032554918       -0.3544282842
 C         -4.8745638723        0.6038791343        0.9360302001
 C         -2.8736870263        0.4839148282       -0.5720921592
 C         -1.8646025865        1.0362989892        0.3957654632
 C         -0.5023494341        0.4084296622        0.2485301124
 C         -0.3349000294       -0.9389850528        0.2009240184
 O         -1.3355697434       -1.8231685103        0.2736573528
 C          1.0001496284       -1.5822930053        0.0719683140
 O          1.1093577797       -2.7984891542        0.0210112966
 C          2.1555358885       -0.6755551044        0.0183425671
 C          3.4375899033       -1.2086470979       -0.0822574415
 C          4.5423967733       -0.3744535122       -0.1296998076
 C          4.3738287229        1.0002431815       -0.0795127085
 C          3.1009018205        1.5405826792        0.0171022285
 C          1.9845570121        0.7137670987        0.0675032949
 C          0.6390113575        1.3174807427        0.1696252116
 O          0.4926245375        2.5376341965        0.1920295008
 H         -5.8812451174        0.5075233620       -1.6153729982
 H         -5.5279444630       -1.1486591193       -1.1463546862
 H         -4.5323721504       -0.3506507219       -2.3709898687
 H         -5.6445307078       -0.1403533585        1.1267176911
 H         -5.3621587740        1.5757817501        0.8662352990
 H         -4.1962125266        0.6318867937        1.7835593103
 H         -2.4743370850        0.2749370792       -1.5571915832
 H         -2.2042340736        0.9171461047        1.4279355020
 H         -1.7405742899        2.1106964375        0.2235293463
 H         -2.2046439832       -1.3748793740        0.2779163396
 H          3.5422381671       -2.2825802513       -0.1199623382
 H          5.5312930058       -0.7976279558       -0.2064055086
 H          5.2311938859        1.6534157952       -0.1157766289
 H          2.9471755091        2.6086744782        0.0573197075
  32
  -51.423727229999997        7.5051180957455199E-003 !
 C         -5.0471029893       -0.1710811936       -1.4866530421
 C         -4.1630257773        0.2993218217       -0.3702247375
 C         -4.8801087586        0.5260151026        0.9259359456
 C         -2.8643282246        0.5108005844       -0.5698551159
 C         -1.8669150492        1.0348915327        0.4256913776
 C         -0.5038001187        0.4102144760        0.2706912194
 C         -0.3372674426       -0.9368199720        0.2115171065
 O         -1.3392884496       -1.8198707275        0.2786231589
 C          0.9970179208       -1.5802431564        0.0763523408
 O          1.1061954412       -2.7963580263        0.0253049774
 C          2.1517904692       -0.6731623812        0.0162981417
 C          3.4327610232       -1.2059316159       -0.0990912951
 C          4.5370631280       -0.3715785578       -0.1562823064
 C          4.3691048025        1.0029575308       -0.0998788680
 C          3.0973125000        1.5429434366        0.0130884326
 C          1.9814719831        0.7160276132        0.0726051707
 C          0.6372931745        1.3196831473        0.1927531127
 O          0.4916789502        2.5397647490        0.2271759850
 H         -5.4941629214       -1.1318383435       -1.2355371820
 H         -4.4931334629       -0.2756635373       -2.4154216075
 H         -5.8581614852        0.5385844430       -1.6410602061
 H         -5.6040108899       -0.2679281306        1.0966848070
 H         -5.4267964394        1.4668638945        0.8778450171
 H         -4.2058914205        0.5747392369        1.7755023365
 H         -2.4551108457        0.3491348655       -1.5598397586
 H         -2.2166555482        0.8853146104        1.4503130666
 H         -1.7412862632        2.1134635554        0.2842629078
 H         -2.2072745651       -1.3702673351        0.2856585072
 H          3.5368656134       -2.2797416708       -0.1418338682
 H          5.5249994001       -0.7944691184       -0.2451104041
 H          5.2259744390        1.6562612209       -0.1441455124
 H          2.9441095219        2.6108887925        0.0584987731
  32
  -51.423725949999998        7.4949593743595389E-003 !
 C         -5.0605833089       -0.1625698985       -1.4838542211
 C         -4.1719143720        0.3163076647       -0.3748219652
 C         -4.8903862106        0.6041912214        0.9084041528
 C         -2.8664924830        0.4868009141       -0.5690186954
 C         -1.8680083473        1.0181682156        0.4219687523
 C         -0.5030228694        0.3979384273        0.2688219641
 C         -0.3312612123       -0.9488102605        0.2196728502
 O         -1.3297100258       -1.8352633666        0.2951326976
 C          1.0053429358       -1.5879663241        0.0877549908
 O          1.1191347629       -2.8039457176        0.0427388142
 C          2.1566956372       -0.6767837082        0.0224783438
 C          3.4400425172       -1.2052827640       -0.0861286563
 C          4.5409285185       -0.3670001214       -0.1504796343
 C          4.3673643114        1.0073124161       -0.1072081933
 C          3.0933370033        1.5430222785        0.0007442907
 C          1.9808417565        0.7121159100        0.0668985072
 C          0.6342519337        1.3113749834        0.1824251445
 O          0.4837843392        2.5309817171        0.2070474844
 H         -5.5447858074       -1.0971885762       -1.2045042821
 H         -4.5011666716       -0.3191790037       -2.4020390985
 H         -5.8442229695        0.5694716288       -1.6723875105
 H         -4.2215790134        0.6388601186        1.7632924349
 H         -5.6531016344       -0.1507443083        1.0885454017
 H         -5.3901090009        1.5699481833        0.8352285234
 H         -2.4532580773        0.2864773933       -1.5501684832
 H         -2.2161103002        0.8711788593        1.4477159695
 H         -1.7466793763        2.0967983834        0.2769325269
 H         -2.1996913573       -1.3900396301        0.3006002440
 H          3.5486750793       -2.2789557226       -0.1192349848
 H          5.5306541743       -0.7867794573       -0.2341741752
 H          5.2215726896        1.6636986608       -0.1564714629
 H          2.9355337200        2.6106989276        0.0353889097
  32
  -51.423742670000003        7.6287478948660423E-003 !
 C         -5.0836081122       -0.0139114434       -1.5903930293
 C         -4.1759519345        0.4998456337       -0.5165768184
 C         -4.8373972665        1.2348384064        0.6128756836
 C         -2.8600699011        0.3167256017       -0.5611163153
 C         -1.9066761379        0.8356232131        0.4837135015
 C         -0.5196194077        0.2692814156        0.3482046420
 C         -0.2888300891       -1.0692077867        0.3774609691
 O         -1.2432246207       -1.9928985577        0.5359163924
 C          1.0705962794       -1.6578406838        0.2430897262
 O          1.2384159417       -2.8677474330        0.2831817703
 C          2.1750867746       -0.7051762414        0.0627827977
 C          3.4742462353       -1.1849398336       -0.0792359458
 C          4.5316611314       -0.3066581764       -0.2505872377
 C          4.2987846462        1.0592050816       -0.2801858831
 C          3.0087420318        1.5465083043       -0.1388739681
 C          1.9392119938        0.6752335935        0.0325069545
 C          0.5742925757        1.2235744052        0.1803828919
 O          0.3740517805        2.4362334043        0.1640537537
 H         -5.6097659051        0.8153646642       -2.0612850852
 H         -5.8310369827       -0.6796155595       -1.1609675140
 H         -4.5288232405       -0.5529967340       -2.3536296821
 H         -5.8999428954        1.3547949478        0.4238413803
 H         -4.3908756433        2.2201173891        0.7389538590
 H         -4.7147045304        0.6964609275        1.5524201078
 H         -2.4116398727       -0.1883165537       -1.4062069027
 H         -2.2975524055        0.6261923261        1.4850801576
 H         -1.8225335959        1.9245004567        0.3995114136
 H         -2.1303874201       -1.5932601265        0.5821536820
 H          3.6301692257       -2.2529392886       -0.0519352200
 H          5.5340052646       -0.6887584488       -0.3606580497
 H          5.1190640026        1.7465393846       -0.4132644035
 H          2.8047511184        2.6067017335       -0.1587706055
  32
  -51.423742079999997        7.6239864873424729E-003 !
 C         -5.1464719355       -0.3115553432        1.0262869286
 C         -4.1759552977        0.2678772737        0.0402228887
 C         -4.7804185552        0.5959753778       -1.2909408001
 C         -2.9048002787        0.4754214947        0.3758368852
 C         -1.8276133546        1.0926534306       -0.4720607483
 C         -0.4813060309        0.4460161407       -0.2664988165
 C         -0.3193909377       -0.9018474983       -0.3203828056
 O         -1.3119102546       -1.7680720097       -0.5497696366
 C          1.0000524683       -1.5643980638       -0.1392970757
 O          1.1055072135       -2.7806473087       -0.1953917567
 C          2.1452047109       -0.6752669286        0.1015708082
 C          3.4122700222       -1.2258009613        0.2733716495
 C          4.5072934691       -0.4085482107        0.5010663003
 C          4.3438089170        0.9664242086        0.5598158014
 C          3.0857673333        1.5238667412        0.3912969543
 C          1.9793301208        0.7143280766        0.1612483322
 C          0.6496757549        1.3363403156       -0.0148634739
 O          0.5075042889        2.5556845479        0.0480816374
 H         -5.5536383615       -1.2487647930        0.6496791009
 H         -5.9800701898        0.3732027339        1.1731952551
 H         -4.6740126923       -0.4968992822        1.9869630295
 H         -4.0345363469        0.7994568362       -2.0527287794
 H         -5.4109303931        1.4790203832       -1.1939805735
 H         -5.4121740346       -0.2239644010       -1.6268235901
 H         -2.5849540634        0.2312303850        1.3819007889
 H         -1.7166002187        2.1500489775       -0.2100510075
 H         -2.0868306634        1.0507493017       -1.5328838553
 H         -2.1777191360       -1.3143040577       -0.5792041570
 H          3.5129519614       -2.2996613955        0.2242941228
 H          5.4845116432       -0.8451371006        0.6322986675
 H          5.1936663325        1.6064974809        0.7361194234
 H          2.9362685996        2.5924291093        0.4338803159
  32
  -51.423712320000000        7.3876339569399771E-003 !
 C         -5.1391939274       -0.3201275954        1.0303072810
 C         -4.1715898321        0.2612417401        0.0424931545
 C         -4.7757760680        0.5745387143       -1.2924226881
 C         -2.9029253858        0.4814014122        0.3794123899
 C         -1.8276991104        1.0992953722       -0.4705032662
 C         -0.4816006536        0.4515944960       -0.2667785359
 C         -0.3214949822       -0.8962808179       -0.3239971213
 O         -1.3155130431       -1.7601460315       -0.5552359469
 C          0.9969458735       -1.5612904885       -0.1448038209
 O          1.1004638344       -2.7775910392       -0.2036125258
 C          2.1432013379       -0.6743256176        0.0987894873
 C          3.4096289197       -1.2267801274        0.2692651351
 C          4.5053598927       -0.4115491489        0.5007586457
 C          4.3433827437        0.9634032343        0.5642885477
 C          3.0861119117        1.5227789104        0.3966007889
 C          1.9789452207        0.7152900238        0.1630397459
 C          0.6501949696        1.3396981810       -0.0115617434
 O          0.5096724627        2.5590723329        0.0545869745
 H         -5.9834305285        0.3541292971        1.1641995856
 H         -4.6695911764       -0.4872126183        1.9957963552
 H         -5.5304069308       -1.2677869489        0.6627081273
 H         -4.0303581721        0.7784481612       -2.0545576365
 H         -5.4138836201        1.4528203466       -1.2033991645
 H         -5.3999972807       -0.2531939807       -1.6231800991
 H         -2.5832231738        0.2462924183        1.3875497796
 H         -1.7158501614        2.1563373608       -0.2078743745
 H         -2.0886528480        1.0578375632       -1.5308585381
 H         -2.1806838002       -1.3048947316       -0.5849347971
 H          3.5094131553       -2.3005232622        0.2161741973
 H          5.4820004118       -0.8497069929        0.6312147242
 H          5.1937033293        1.6019915022        0.7438505006
 H          2.9376937633        2.5913817737        0.4420755361
  32
  -51.423724180000001        7.4809344174835016E-003 !
 C         -5.0466725031       -0.1633401223       -1.4952176780
 C         -4.1661900894        0.3100579518       -0.3769433764
 C         -4.8921038328        0.5594710209        0.9099293842
 C         -2.8634550463        0.5028152288       -0.5679014171
 C         -1.8675356609        1.0256581948        0.4301845206
 C         -0.5035219828        0.4034206521        0.2746867296
 C         -0.3341020264       -0.9434063066        0.2196354244
 O         -1.3338573921       -1.8285916957        0.2920464036
 C          1.0013403445       -1.5843770010        0.0838934263
 O          1.1130790983       -2.8004594849        0.0371461336
 C          2.1539484656       -0.6749578863        0.0182856516
 C          3.4358834814       -1.2051327973       -0.0984505112
 C          4.5382396021       -0.3684830458       -0.1597615888
 C          4.3673977420        1.0057988726       -0.1059173354
 C          3.0945984603        1.5432082337        0.0079156129
 C          1.9806882509        0.7139976953        0.0711927686
 C          0.6353723867        1.3150988291        0.1913961835
 O          0.4870767482        2.5349208018        0.2211296615
 H         -4.4853508296       -0.2892525146       -2.4169474626
 H         -5.8456434617        0.5558164042       -1.6680438612
 H         -5.5106047908       -1.1136029180       -1.2348051310
 H         -5.5961239810       -0.2472435239        1.1042376391
 H         -5.4633173595        1.4837423844        0.8302370148
 H         -4.2219989827        0.6531936794        1.7586954339
 H         -2.4488602753        0.3264287047       -1.5531604191
 H         -2.2179083616        0.8721239642        1.4540605045
 H         -1.7433105882        2.1048869877        0.2921811841
 H         -2.2029879112       -1.3820947553        0.3026688348
 H          3.5424233312       -2.2787995923       -0.1382535166
 H          5.5269243484       -0.7894757919       -0.2494395154
 H          5.2226998481        1.6609697565       -0.1531641879
 H          2.9390302568        2.6109052432        0.0510517894
  32
  -51.423597469999997        6.5422022086474886E-003 !
 C         -5.1500537372       -0.1611361202        1.1195149709
 C         -4.1970296151        0.3834886022        0.0980794173
 C         -4.8466991031        0.8518451439       -1.1692654264
 C         -2.8887595577        0.4264849586        0.3316035315
 C         -1.8344216419        0.9665519782       -0.5995758807
 C         -0.4775050359        0.3622838680       -0.3497231660
 C         -0.2899741289       -0.9831935203       -0.3304648535
 O         -1.2652594587       -1.8773073487       -0.5255437706
 C          1.0390010623       -1.6104739254       -0.1024146830
 O          1.1717347855       -2.8253408142       -0.1154365796
 C          2.1591452910       -0.6883190611        0.1325917387
 C          3.4295222889       -1.2047306756        0.3725185389
 C          4.5008061491       -0.3560741420        0.5985863065
 C          4.3107479421        1.0166274462        0.5851972891
 C          3.0497128220        1.5404056111        0.3460557517
 C          1.9666527307        0.6990991289        0.1187655151
 C          0.6331937273        1.2861676678       -0.1321144761
 O          0.4715412004        2.5044173140       -0.1551756540
 H         -5.7672789239       -0.9417820140        0.6780104397
 H         -5.8154643438        0.6280077433        1.4671143363
 H         -4.6223130342       -0.5706364984        1.9764745789
 H         -5.1527881193       -0.0026355738       -1.7724244777
 H         -4.1882033752        1.4803152994       -1.7598631125
 H         -5.7427207932        1.4209263018       -0.9312190186
 H         -2.5152419847        0.0955276175        1.2927843485
 H         -1.7338854445        2.0481544138       -0.4596340656
 H         -2.1162033734        0.7974660096       -1.6423004764
 H         -2.1345823202       -1.4418736624       -0.6105187096
 H          3.5521234242       -2.2774018025        0.3768257933
 H          5.4805472696       -0.7665261712        0.7840641061
 H          5.1419258387        1.6809754758        0.7607973554
 H          2.8794287504        2.6066181938        0.3308142986
  32
  -51.423594340000001        6.5205693000795718E-003 !
 C         -5.1669281352       -0.1599311382        1.0955380652
 C         -4.2029015291        0.3956912395        0.0909475068
 C         -4.8382123693        0.9078987568       -1.1671802505
 C         -2.8942823299        0.4108405893        0.3256876875
 C         -1.8354168591        0.9540213814       -0.5990021383
 C         -0.4781360974        0.3529989905       -0.3444964413
 C         -0.2871250150       -0.9919124796       -0.3219783038
 O         -1.2595464340       -1.8891391993       -0.5180203627
 C          1.0419454474       -1.6155068702       -0.0853006401
 O          1.1749571935       -2.8304833157       -0.0813955286
 C          2.1619034371       -0.6900726475        0.1370834022
 C          3.4348568635       -1.2028946962        0.3708202998
 C          4.5061523371       -0.3509684732        0.5842470198
 C          4.3131974194        1.0212724119        0.5653491952
 C          3.0494920901        1.5414035657        0.3325811385
 C          1.9664878722        0.6968902317        0.1174353385
 C          0.6305257522        1.2799728097       -0.1292942120
 O          0.4653077080        2.4976487441       -0.1521150874
 H         -5.8252250765        0.6283561784        1.4578327673
 H         -4.6485907112       -0.5951149758        1.9455844618
 H         -5.7902238944       -0.9231504911        0.6327086325
 H         -5.1044655279        0.0770461481       -1.8202453728
 H         -4.1832303074        1.5826263473       -1.7091529298
 H         -5.7555047464        1.4394138313       -0.9240166284
 H         -2.5254565426        0.0532755046        1.2790040892
 H         -1.7380036222        2.0359656718       -0.4592227567
 H         -2.1131279747        0.7840380230       -1.6428794537
 H         -2.1293608115       -1.4562307752       -0.6087745456
 H          3.5594199535       -2.2753867544        0.3811339622
 H          5.4880022641       -0.7585419915        0.7653177601
 H          5.1443024645        1.6881457919        0.7313858214
 H          2.8770497203        2.6071867098        0.3129677219
  32
  -51.423579050000001        6.4159167105886797E-003 !
 C         -5.1527957141        0.0258450564        1.1934937800
 C         -4.1999704284        0.4942345281        0.1353204256
 C         -4.8515609501        1.0680461786       -1.0870048854
 C         -2.8848505040        0.3849022916        0.2903741798
 C         -1.8454940972        0.8368018920       -0.7053485068
 C         -0.4806369392        0.2727178486       -0.4139708618
 C         -0.2648606378       -1.0661480602       -0.3334003918
 O         -1.2148490689       -1.9910613132       -0.5086989988
 C          1.0713607858       -1.6532512439       -0.0469626622
 O          1.2277008563       -2.8641348741        0.0066939076
 C          2.1678142770       -0.6976580067        0.1642678959
 C          3.4438258465       -1.1753229015        0.4502090452
 C          4.4932276570       -0.2945191151        0.6547674847
 C          4.2755871495        1.0717245742        0.5728684017
 C          3.0089320711        1.5568817138        0.2867260454
 C          1.9474013900        0.6831362386        0.0813667603
 C          0.6072651069        1.2290150388       -0.2212356939
 O          0.4220223164        2.4410288296       -0.3079999850
 H         -4.6279025038       -0.4499409236        2.0176353991
 H         -5.8632617033       -0.6826248608        0.7701701737
 H         -5.7205965087        0.8692667273        1.5842884196
 H         -4.1627726394        1.6736495685       -1.6673138972
 H         -5.6975486039        1.6871749908       -0.7972332016
 H         -5.2329342399        0.2675660283       -1.7205921400
 H         -2.4929637781       -0.0141811775        1.2176451552
 H         -1.7543086135        1.9277437062       -0.6773755657
 H         -2.1447083826        0.5622293484       -1.7211751586
 H         -2.0891621797       -1.5870321243       -0.6550659438
 H          3.5876225807       -2.2436964411        0.5087098535
 H          5.4775576038       -0.6750067958        0.8766211826
 H          5.0898823775        1.7610307996        0.7306057109
 H          2.8172535260        2.6174416431        0.2186169235
  32
  -51.423533360000000        6.1130936250341382E-003 !
 C         -5.1430649203       -0.0423951285        1.1815404774
 C         -4.1989002409        0.4544272390        0.1279299349
 C         -4.8664527968        0.9949316180       -1.1005701619
 C         -2.8823926774        0.3995144583        0.3007331313
 C         -1.8404594717        0.8834960305       -0.6763291613
 C         -0.4781863967        0.3049732112       -0.3995312348
 C         -0.2723135154       -1.0366574179       -0.3418627857
 O         -1.2300199002       -1.9510324010       -0.5300948356
 C          1.0599602973       -1.6384894944       -0.0683001557
 O          1.2072277819       -2.8512228696       -0.0350777386
 C          2.1643420871       -0.6946970947        0.1548507292
 C          3.4370990992       -1.1866668908        0.4308619936
 C          4.4940484805       -0.3174007156        0.6451300607
 C          4.2872283349        1.0515851671        0.5830915515
 C          3.0236309944        1.5510311445        0.3082468151
 C          1.9546517929        0.6888958353        0.0929874460
 C          0.6175315470        1.2498852105       -0.1957095058
 O          0.4412818229        2.4645844551       -0.2624421813
 H         -5.8257538700       -0.7769293912        0.7570609044
 H         -5.7426853974        0.7822991267        1.5649276211
 H         -4.6080824283       -0.4962271432        2.0113486684
 H         -4.1765930094        1.5427455173       -1.7339866054
 H         -5.6750236096        1.6637664658       -0.8126916226
 H         -5.3053266901        0.1814061311       -1.6779409900
 H         -2.4899808493        0.0227211335        1.2370541217
 H         -1.7460099599        1.9725300255       -0.6098921816
 H         -2.1344048564        0.6445955770       -1.7024033116
 H         -2.1019593411       -1.5360669553       -0.6621316150
 H          3.5726126040       -2.2569784294        0.4726337015
 H          5.4758192802       -0.7089448721        0.8587656714
 H          5.1072930272        1.7319986039        0.7488388092
 H          2.8403979559        2.6139166244        0.2561128835
  32
  -51.423524899999997        6.0586114386700146E-003 !
 C         -5.1405299547        0.0383147898        1.2098377328
 C         -4.1988989906        0.4762044661        0.1281273872
 C         -4.8671199697        1.0181341994       -1.0986376151
 C         -2.8816605594        0.3975229784        0.2874973523
 C         -1.8427000581        0.8475692856       -0.7072353620
 C         -0.4795698787        0.2792306449       -0.4160163516
 C         -0.2656461078       -1.0602227402       -0.3417150105
 O         -1.2143933334       -1.9846429441       -0.5263976981
 C          1.0686585897       -1.6499680339       -0.0500433914
 O          1.2219294117       -2.8611619052        0.0057445930
 C          2.1667866375       -0.6967184319        0.1632197999
 C          3.4427529949       -1.1770954476        0.4449452478
 C          4.4940766438       -0.2984530085        0.6490490719
 C          4.2779371540        1.0684091849        0.5734228004
 C          3.0109094649        1.5563098581        0.2936170994
 C          1.9479747843        0.6846819934        0.0864757446
 C          0.6078588675        1.2336121443       -0.2105861009
 O          0.4224106680        2.4464594659       -0.2832046341
 H         -5.7963396095        0.8619555417        1.4872988613
 H         -4.6025825945       -0.2930727427        2.0938495111
 H         -5.7688763214       -0.7779634162        0.8558052613
 H         -5.7573756239        0.4374370118       -1.3302073286
 H         -4.2088870062        1.0164564712       -1.9619770761
 H         -5.1786885925        2.0464307091       -0.9181649752
 H         -2.4864829202        0.0300988380        1.2262035279
 H         -1.7506754924        1.9380865616       -0.6764309132
 H         -2.1410138511        0.5805187053       -1.7256956660
 H         -2.0892950565       -1.5830963679       -0.6759126250
 H          3.5858047367       -2.2459742583        0.4974442320
 H          5.4783723529       -0.6809855121        0.8671524746
 H          5.0934572134        1.7560837131        0.7318273548
 H          2.8204066336        2.6172772293        0.2301187475
  32
  -51.423493219999997        5.8588716023155801E-003 !
 C         -5.1386989170        0.0150709102        1.2006856415
 C         -4.2000492250        0.4812835383        0.1278455767
 C         -4.8765071130        1.0491447009       -1.0822177368
 C         -2.8830286502        0.3900994053        0.2791391657
 C         -1.8409721504        0.8492927552       -0.7096043424
 C         -0.4786335113        0.2798859523       -0.4161569156
 C         -0.2644865569       -1.0597985275       -0.3456269077
 O         -1.2108047175       -1.9844544316       -0.5403610699
 C          1.0671517898       -1.6497856314       -0.0428920454
 O          1.2171563252       -2.8607577231        0.0252475258
 C          2.1666730767       -0.6973077600        0.1663633310
 C          3.4428948509       -1.1783905577        0.4457469402
 C          4.4959937859       -0.3004240948        0.6432959223
 C          4.2812490204        1.0664487634        0.5641626579
 C          3.0136750252        1.5551087790        0.2881668761
 C          1.9490914877        0.6841283487        0.0870307936
 C          0.6087151359        1.2336868276       -0.2074718475
 O          0.4230759754        2.4468161325       -0.2761575732
 H         -5.7977865104       -0.7607204575        0.8136546895
 H         -5.7638958200        0.8416009364        1.5343812308
 H         -4.5978868354       -0.3800102044        2.0563081807
 H         -5.6050464746        0.3395889059       -1.4713249881
 H         -4.1734765327        1.3026134496       -1.8685660070
 H         -5.4161270448        1.9535993695       -0.8046745539
 H         -2.4878949481       -0.0001721806        1.2087157087
 H         -1.7488212193        1.9395381598       -0.6703560529
 H         -2.1338446535        0.5868563978       -1.7306065233
 H         -2.0839802016       -1.5846494122       -0.7034708665
 H          3.5847201143       -2.2472412476        0.5013650867
 H          5.4809634838       -0.6834312672        0.8577622490
 H          5.0983972296        1.7536167220        0.7163218034
 H          2.8240707484        2.6161319101        0.2227732698
  32
  -51.423492369999998        5.8536041180851633E-003 !
 C         -5.1065015284        0.0886974680        1.2681591865
 C         -4.1878506086        0.5099258971        0.1598160982
 C         -4.8841097345        1.0612090396       -1.0466175506
 C         -2.8695667301        0.3953357073        0.2781229107
 C         -1.8464209316        0.8115180499       -0.7496862595
 C         -0.4797489880        0.2555257375       -0.4515686394
 C         -0.2593040098       -1.0817382719       -0.3594537146
 O         -1.2029427058       -2.0125307533       -0.5382430742
 C          1.0756673775       -1.6608801566       -0.0507583532
 O          1.2369419867       -2.8707120710        0.0124958171
 C          2.1641832727       -0.6984128038        0.1714735961
 C          3.4366756144       -1.1676544545        0.4859264050
 C          4.4790600528       -0.2804803937        0.6984849684
 C          4.2581589531        1.0838546628        0.5956885647
 C          2.9946837140        1.5607202753        0.2828946020
 C          1.9399228818        0.6805323593        0.0702940188
 C          0.6024302334        1.2181289969       -0.2574951770
 O          0.4143821212        2.4281405646       -0.3623999393
 H         -5.8043473922       -0.6682725857        0.9134148300
 H         -5.6913807057        0.9408612491        1.6108532379
 H         -4.5518154083       -0.3135591144        2.1113649141
 H         -5.4226798952        1.9671307511       -0.7723046575
 H         -5.6159586446        0.3444037812       -1.4161052418
 H         -4.1930870278        1.3060993823       -1.8461580974
 H         -2.4571894955        0.0144255992        1.2040227989
 H         -1.7551344305        1.9023759387       -0.7592976331
 H         -2.1573282789        0.5036364578       -1.7525110100
 H         -2.0770864219       -1.6172295242       -0.7056967154
 H          3.5838479745       -2.2347734780        0.5583420776
 H          5.4606556863       -0.6544796772        0.9425260613
 H          5.0669531520        1.7780359935        0.7594938356
 H          2.8003798963        2.6195722136        0.1984464002
  32
  -51.423477300000002        5.7609970797103619E-003 !
 C         -4.9739932489        0.0309186883       -1.7139851504
 C         -4.1547404540        0.4877474429       -0.5440713175
 C         -4.9496614222        1.0727962160        0.5832187626
 C         -2.8299306936        0.3861025601       -0.5493661951
 C         -1.9028670633        0.8459944327        0.5474640398
 C         -0.5170382129        0.2781269787        0.3978610921
 C         -0.2917582755       -1.0614862196        0.4020916768
 O         -1.2485251099       -1.9845985674        0.5476667475
 C          1.0652085671       -1.6522708846        0.2521428355
 O          1.2316452681       -2.8624453395        0.2886058920
 C          2.1689495284       -0.7013159563        0.0583333691
 C          3.4626235682       -1.1841031110       -0.1191977016
 C          4.5188749363       -0.3077967872       -0.3070450244
 C          4.2903851436        1.0590988603       -0.3164439919
 C          3.0059627042        1.5495169704       -0.1386972415
 C          1.9375876792        0.6802094751        0.0488386016
 C          0.5785016972        1.2314137414        0.2347301620
 O          0.3838021179        2.4449298264        0.2494480555
 H         -5.6492141124       -0.7683840582       -1.4114697823
 H         -4.3440680886       -0.3315152373       -2.5218337506
 H         -5.5825701841        0.8534840518       -2.0860757281
 H         -5.2624819029        2.0829144096        0.3207829256
 H         -4.3791339698        1.1287629533        1.5049640088
 H         -5.8473633507        0.4828249651        0.7559589000
 H         -2.3362676647       -0.0139654289       -1.4260115534
 H         -2.3050758787        0.5826328081        1.5304773700
 H         -1.8100678560        1.9363370502        0.5190306669
 H         -2.1347595905       -1.5855514319        0.6062865738
 H          3.6148195521       -2.2529456069       -0.1064020857
 H          5.5168744878       -0.6922216687       -0.4449135895
 H          5.1095846707        1.7449094583       -0.4628936128
 H          2.8063032152        2.6106560657       -0.1400762388
  32
  -51.422996210000001        3.4626133503917046E-003 !
 C         -4.8401916014        1.0349650241        1.4431944751
 C         -3.9588405218        1.0166432078        0.2320626349
 C         -4.3621146069        1.9359868836       -0.8846567743
 C         -2.8955703145        0.2251210725        0.1574635854
 C         -1.9674674859        0.1459225662       -1.0288657148
 C         -0.5666294508       -0.1988453908       -0.6015348285
 C         -0.2177656350       -1.4546320656       -0.2201068269
 O         -1.0525560484       -2.5007762901       -0.2133035321
 C          1.1530247806       -1.8081979985        0.2365276139
 O          1.4318073451       -2.9536178506        0.5586267287
 C          2.1274826923       -0.7089590800        0.2761133308
 C          3.4276885014       -0.9650595196        0.7027874723
 C          4.3647588947        0.0539930738        0.7482968663
 C          4.0092764785        1.3380022367        0.3666461174
 C          2.7172005326        1.6026505856       -0.0602227785
 C          1.7676632214        0.5886509341       -0.1096517357
 C          0.3984047559        0.8990567224       -0.5732814973
 O          0.0907632228        2.0358344752       -0.9235470316
 H         -4.8640251050        2.0371595829        1.8690677731
 H         -4.4867266189        0.3416184868        2.2015518347
 H         -5.8590885119        0.7664832073        1.1676251397
 H         -4.6011242063        1.3697161141       -1.7832734163
 H         -3.5490171391        2.6190616684       -1.1288530562
 H         -5.2318492414        2.5223002797       -0.6032788758
 H         -2.6440383952       -0.4124392492        0.9950207968
 H         -1.9316411703        1.1138043310       -1.5316860487
 H         -2.3415688933       -0.5862888314       -1.7527381650
 H         -1.9422546889       -2.2608887924       -0.5254535178
 H          3.6800648611       -1.9736358263        0.9940333933
 H          5.3691666681       -0.1552644987        1.0801587408
 H          4.7358954871        2.1342465225        0.3996076311
 H          2.4195056101        2.5953975235       -0.3632478076
  32
  -51.422984560000003        3.4201884012845332E-003 !
 C         -4.7887541328        0.3805645838       -1.9331340862
 C         -3.9643131323        0.8067592828       -0.7575440659
 C         -4.4536958815        2.0176154886       -0.0171209377
 C         -2.8731293654        0.1437651655       -0.3933903353
 C         -2.0028112426        0.5155449200        0.7813018703
 C         -0.5872574387        0.0448653824        0.5878885570
 C         -0.2407838030       -1.2630572224        0.7037440784
 O         -1.0940740666       -2.2443108492        1.0199799247
 C          1.1486658668       -1.7516811650        0.4945022845
 O          1.4283873366       -2.9322431869        0.6416989313
 C          2.1396964680       -0.7401819111        0.1017443111
 C          3.4534565664       -1.1308231361       -0.1425942087
 C          4.4053152682       -0.1962314911       -0.5158853750
 C          4.0515994538        1.1374893302       -0.6459113796
 C          2.7466506989        1.5365127658       -0.4019049737
 C          1.7819253863        0.6078044655       -0.0288089176
 C          0.3987892507        1.0624124818        0.2278656855
 O          0.0965991396        2.2503335823        0.1430141425
 H         -4.3744564935       -0.5050669481       -2.4075720127
 H         -4.8302650932        1.1840932232       -2.6673142879
 H         -5.8085348119        0.1664038741       -1.6164106720
 H         -4.6967148896        1.7669559917        1.0142286751
 H         -5.3399401311        2.4267509329       -0.4930082749
 H         -3.6840111316        2.7888267771        0.0023180774
 H         -2.5548275306       -0.7191803389       -0.9634129616
 H         -2.4225564306        0.1059592567        1.7068177527
 H         -1.9778567596        1.6018018275        0.8886026171
 H         -1.9963223850       -1.9117700094        1.1680394750
 H          3.7043483243       -2.1752645153       -0.0332944112
 H          5.4196458631       -0.5096524447       -0.7047640860
 H          4.7892820968        1.8682852718       -0.9371403066
 H          2.4498870049        2.5705319742       -0.4953363101
  32
  -51.422965099999999        3.3504784818219040E-003 !
 C         -4.7538671969        0.4113757920       -1.9505353827
 C         -3.9349373276        0.8314635974       -0.7688027183
 C         -4.3913369543        2.0768501593       -0.0647645230
 C         -2.8782158584        0.1333703576       -0.3706336122
 C         -2.0119098993        0.4910676519        0.8112022137
 C         -0.5952994873        0.0273292012        0.6070820218
 C         -0.2387854834       -1.2773536410        0.7289545777
 O         -1.0810762861       -2.2623903347        1.0630123753
 C          1.1510793686       -1.7586085370        0.5063275207
 O          1.4389558557       -2.9370478828        0.6545396249
 C          2.1325953366       -0.7425365532        0.1019001830
 C          3.4482806763       -1.1250950422       -0.1449080401
 C          4.3916708184       -0.1860749850       -0.5283918090
 C          4.0271193212        1.1438059300       -0.6672067986
 C          2.7199439026        1.5346521846       -0.4216073296
 C          1.7639581170        0.6016923413       -0.0369446677
 C          0.3786145459        1.0478911361        0.2231671512
 O          0.0648431152        2.2314465209        0.1221376172
 H         -4.3604406008       -0.4945148153       -2.4041193211
 H         -4.7592103199        1.2034340356       -2.6981800006
 H         -5.7845685501        0.2340870055       -1.6464535352
 H         -3.5970808381        2.8230031502       -0.0578753428
 H         -4.6532564468        1.8616038061        0.9698251701
 H         -5.2588845446        2.5018199113       -0.5608544456
 H         -2.5858727623       -0.7535951910       -0.9173479223
 H         -2.4300132608        0.0635256474        1.7290865226
 H         -1.9909408941        1.5751833760        0.9350266182
 H         -1.9833570496       -1.9348828703        1.2217558195
 H          3.7069821559       -2.1670528768       -0.0303394187
 H          5.4077795612       -0.4929996949       -0.7184104590
 H          4.7582910594        1.8780867553       -0.9659487771
 H          2.4150369886        2.5656059054       -0.5219735632
  32
  -51.421830810000003        1.0088422026396993E-003 !
 C         -5.2690507769       -0.5490266541       -0.2421532297
 C         -3.9777295070        0.1875477602       -0.4115464180
 C         -3.6851952522        0.6800297965       -1.7992213953
 C         -3.1454493930        0.3870179922        0.6124847081
 C         -1.8819682378        1.1941074472        0.5461688029
 C         -0.5744263421        0.4590754933        0.3535798944
 C         -0.4358778582       -0.8801122131        0.1794503045
 O         -1.4383555055       -1.7640074689        0.1564939625
 C          0.8905017066       -1.5327450562       -0.0128649333
 O          0.9707426178       -2.7412512155       -0.1749950822
 C          2.0672170886       -0.6540057512        0.0040767475
 C          3.3360384760       -1.2024010694       -0.1606174343
 C          4.4573139655       -0.3891010829       -0.1477000951
 C          4.3183841748        0.9786009580        0.0288336981
 C          3.0587398310        1.5333918332        0.1934785985
 C          1.9263786359        0.7270742372        0.1832957935
 C          0.5943401585        1.3411860605        0.3626346428
 O          0.4742244561        2.5548068681        0.5154043191
 H         -5.4276467070       -0.8441555567        0.7916349982
 H         -5.2807208752       -1.4394903666       -0.8691278370
 H         -6.0963040920        0.0852310618       -0.5569573138
 H         -4.3800938039        0.2461361614       -2.5120448379
 H         -2.6718443785        0.4242790004       -2.1022612451
 H         -3.7838991075        1.7644811398       -1.8445749827
 H         -3.4183435880        0.0316871454        1.5981715958
 H         -1.7781345568        1.7696927007        1.4718369290
 H         -1.9471687747        1.9328414648       -0.2584199756
 H         -2.3008436065       -1.3046280117        0.2897089124
 H          3.4174278444       -2.2703568282       -0.2966934008
 H          5.4361791276       -0.8229365843       -0.2758134271
 H          5.1889992133        1.6149585456        0.0391051304
 H          2.9277098784        2.5961200920        0.3331032139
  32
  -51.420400940000000        2.2217771069635143E-004 !
 C         -3.6793492306        2.0595410956        1.6515370445
 C         -3.1124023756        0.9590300889        0.8068967015
 C         -2.9353380459       -0.3580244086        1.5067638223
 C         -2.7964477039        1.1610402371       -0.4679335760
 C         -2.1966318740        0.1247914760       -1.3866504182
 C         -0.8062983701       -0.2262653549       -0.9198067373
 C         -0.4119853064       -1.4799566974       -0.5782754612
 O         -1.1645557602       -2.5839654914       -0.6826686704
 C          0.9398183759       -1.7786030648       -0.0315037307
 O          1.2587415207       -2.9231081674        0.2559013571
 C          1.8414450543       -0.6329533490        0.1471914326
 C          3.0994191068       -0.8322343464        0.7095496288
 C          3.9652614234        0.2346062785        0.8842503403
 C          3.5818104088        1.5082772882        0.4940966487
 C          2.3331995052        1.7151151131       -0.0713042469
 C          1.4540389948        0.6529593919       -0.2480599572
 C          0.1257445042        0.9019470047       -0.8482354531
 O         -0.1729504593        2.0112853457       -1.2789634010
 H         -4.6783349026        1.7932790155        1.9945725647
 H         -3.7355034485        2.9928874636        1.0981367626
 H         -3.0545344077        2.2103676509        2.5308471905
 H         -3.2441073949       -1.1883012079        0.8763778812
 H         -3.5218177985       -0.3818899373        2.4213909948
 H         -1.8887723246       -0.5123357349        1.7719353843
 H         -2.9291754509        2.1429828008       -0.8971120973
 H         -2.1303153366        0.5464418642       -2.3908889251
 H         -2.8440341130       -0.7535214608       -1.4189967384
 H         -2.0140634251       -2.4111918242       -1.1227571617
 H          3.3753827196       -1.8340444426        1.0027156611
 H          4.9365211439        0.0709336841        1.3232162322
 H          4.2537975965        2.3411774275        0.6274926178
 H          2.0154372480        2.6981925607       -0.3851585884
  32
  -51.420354459999999        2.1151431174929499E-004 !
 C         -3.6603606752        2.1805605231        1.5371174795
 C         -3.0727083802        1.0278736428        0.7800426824
 C         -2.7764238666       -0.1870374795        1.6112441675
 C         -2.8354903658        1.1091327234       -0.5244871388
 C         -2.2247509720        0.0173634424       -1.3691959766
 C         -0.8280274976       -0.2939031435       -0.8942687561
 C         -0.4133408560       -1.5301815982       -0.5165733114
 O         -1.1521092819       -2.6467512866       -0.5791101591
 C          0.9446220319       -1.7918472131        0.0337075949
 O          1.2768236580       -2.9195723108        0.3680314812
 C          1.8358634128       -0.6308605424        0.1563521700
 C          3.1049876698       -0.7966359579        0.7043756220
 C          3.9618758605        0.2846917303        0.8262186344
 C          3.5575940779        1.5396440591        0.3984226456
 C          2.2973393565        1.7131890121       -0.1522045310
 C          1.4276868672        0.6360108015       -0.2775708017
 C          0.0883432699        0.8488585396       -0.8671626921
 O         -0.2310190795        1.9404935076       -1.3270491704
 H         -3.0098479780        2.4466426977        2.3690754833
 H         -4.6309294898        1.9054888679        1.9480817395
 H         -3.7839046364        3.0500514359        0.8976215173
 H         -3.4156524339       -0.2058451987        2.4902109322
 H         -1.7396488474       -0.1685091836        1.9500355997
 H         -2.9274864717       -1.1067393787        1.0531114188
 H         -3.0564268654        2.0299455588       -1.0435946896
 H         -2.1702325018        0.3684370702       -2.4011349603
 H         -2.8645165364       -0.8670324740       -1.3377674179
 H         -2.0068289589       -2.5020660396       -1.0198180360
 H          3.3969886339       -1.7846560149        1.0273050920
 H          4.9426414630        0.1467569693        1.2527919739
 H          4.2220673855        2.3839719660        0.4915373806
 H          1.9627173000        2.6815419760       -0.4931126118
  32
  -51.420365799999999        2.1406775852886577E-004 !
 C         -3.6886319491        1.7197330653       -1.9565654081
 C         -3.0916515101        0.8018563777       -0.9329660400
 C         -2.8414259095       -0.6004742080       -1.4082704396
 C         -2.8082525675        1.2269339714        0.2933484532
 C         -2.1849115721        0.3852656897        1.3799922971
 C         -0.7988157865       -0.0455530758        0.9717048978
 C         -0.3897607041       -1.3391628694        0.9219867897
 O         -1.1192076127       -2.3971222438        1.3039497767
 C          0.9509676175       -1.7412550485        0.4164374112
 O          1.2815772594       -2.9177246908        0.3883437012
 C          1.8272701015       -0.6577398954       -0.0483578959
 C          3.0718375342       -0.9675207779       -0.5899751987
 C          3.9160891539        0.0401872526       -1.0261191577
 C          3.5245827473        1.3656358936       -0.9195692734
 C          2.2885727535        1.6834670155       -0.3786326604
 C          1.4307382385        0.6805869185        0.0580716420
 C          0.1149692414        1.0460475727        0.6250533544
 O         -0.1880882806        2.2207483815        0.8075959468
 H         -3.7843806660        2.7309179279       -1.5708303778
 H         -4.6736490210        1.3619529492       -2.2538934249
 H         -3.0598638385        1.7414645288       -2.8456201257
 H         -1.8055397918       -0.7109328395       -1.7320749837
 H         -3.4838319100       -0.8320121868       -2.2538713409
 H         -3.0234473008       -1.3307150572       -0.6243615681
 H         -2.9949676966        2.2586543862        0.5515029417
 H         -2.8261099346       -0.4747064909        1.5840618495
 H         -2.1114015895        0.9873625551        2.2872170059
 H         -1.9538289084       -2.1378234316        1.7301899700
 H          3.3553857764       -2.0070827630       -0.6578282592
 H          4.8776573751       -0.2095340309       -1.4454978359
 H          4.1804000693        2.1528872926       -1.2559945815
 H          1.9637529954        2.7090342897       -0.2858968668
  32
  -51.420353040000002        2.1119672125924767E-004 !
 C         -3.6573831362        2.1847176239        1.5345127894
 C         -3.0690488813        1.0309248704        0.7797577223
 C         -2.7653888752       -0.1794495635        1.6149717109
 C         -2.8370443629        1.1074258533       -0.5259902720
 C         -2.2266033920        0.0133921806       -1.3680415963
 C         -0.8295392791       -0.2969263389       -0.8936497282
 C         -0.4142328548       -1.5321207909       -0.5132992729
 O         -1.1535389094       -2.6488537734       -0.5711505668
 C          0.9447891348       -1.7927074988        0.0344482803
 O          1.2788066460       -2.9202081282        0.3678300865
 C          1.8350226637       -0.6307707706        0.1563687016
 C          3.1039418747       -0.7947833454        0.7052166622
 C          3.9599520899        0.2874181908        0.8259075952
 C          3.5550698815        1.5414045981        0.3958368189
 C          2.2950568776        1.7131059724       -0.1558345331
 C          1.4261208689        0.6351113444       -0.2796708206
 C          0.0867712887        0.8462057793       -0.8696054445
 O         -0.2333928962        1.9367268230       -1.3314573380
 H         -3.0024267749        2.4588954519        2.3604031406
 H         -4.6235796239        1.9067138329        1.9538424281
 H         -3.7901434259        3.0500660353        0.8911320967
 H         -1.7283172435       -0.1537229286        1.9527657096
 H         -2.9119861473       -1.1020892883        1.0605928550
 H         -3.4033858087       -0.1984595417        2.4949581234
 H         -3.0627172626        2.0250852796       -1.0485180540
 H         -2.1730252736        0.3615535181       -2.4009984193
 H         -2.8670019877       -0.8704381587       -1.3338079190
 H         -2.0088710057       -2.5045988910       -1.0104682455
 H          3.3966763257       -1.7821093947        1.0295688532
 H          4.9405480888        0.1508137473        1.2532407777
 H          4.2189982348        2.3863463203        0.4877285952
 H          1.9598041188        2.6806243378       -0.4986295532
  32
  -51.420346979999998        2.0984672150709270E-004 !
 C         -3.7193966778        1.7401715515       -1.9233427795
 C         -3.0943095385        0.8152010856       -0.9230389561
 C         -2.7967167203       -0.5629511726       -1.4395671924
 C         -2.8282368368        1.2163390363        0.3149367631
 C         -2.1846255598        0.3694248878        1.3859272807
 C         -0.8005893355       -0.0558700307        0.9653035884
 C         -0.3866423025       -1.3478466457        0.9170253719
 O         -1.1147520170       -2.4084483468        1.2939219346
 C          0.9581148554       -1.7455794146        0.4187241862
 O          1.2935246526       -2.9206706095        0.3957231453
 C          1.8325006405       -0.6593710573       -0.0428129331
 C          3.0837869578       -0.9649695744       -0.5711682611
 C          3.9248801705        0.0448453099       -1.0085543547
 C          3.5228984149        1.3682701950       -0.9174162671
 C          2.2806082063        1.6820207092       -0.3884624159
 C          1.4263402068        0.6771403806        0.0506747851
 C          0.1055145011        1.0388469509        0.6084470808
 O         -0.2079342128        2.2130684487        0.7754420035
 H         -4.6958995311        1.3631209977       -2.2250808107
 H         -3.0954571358        1.7988601680       -2.8140477652
 H         -3.8406080601        2.7393403205       -1.5143305241
 H         -1.7751038968       -0.6095953750       -1.8195350463
 H         -3.4690472686       -0.8108780082       -2.2570530802
 H         -2.8987438046       -1.3180217922       -0.6653250308
 H         -3.0526691269        2.2337190775        0.5988298806
 H         -2.8211934955       -0.4930056122        1.5949803554
 H         -2.1023617337        0.9669873236        2.2955507518
 H         -1.9549869748       -2.1517310233        1.7106522923
 H          3.3747929180       -2.0031080445       -0.6283205569
 H          4.8917706492       -0.2016953095       -1.4174457289
 H          4.1753566949        2.1572742745       -1.2563068360
 H          1.9485961587        2.7061612289       -0.3060804184
  32
  -51.420342040000001        2.0875261364630137E-004 !
 C         -3.7197946820        1.7130672291       -1.9391736381
 C         -3.1001786488        0.7998909390       -0.9246262095
 C         -2.8231657402       -0.5926744375       -1.4133579421
 C         -2.8205515464        1.2217839122        0.3036770970
 C         -2.1794741045        0.3876179088        1.3861316046
 C         -0.7971287796       -0.0444009596        0.9673682431
 C         -0.3915100935       -1.3386453100        0.9099505113
 O         -1.1274986232       -2.3972542272        1.2764735572
 C          0.9533958517       -1.7410105072        0.4155929176
 O          1.2852950678       -2.9173058549        0.3941077363
 C          1.8320039850       -0.6576485144       -0.0449722484
 C          3.0796387587       -0.9676509209       -0.5794305926
 C          3.9246679621        0.0395570051       -1.0152113022
 C          3.5306377791        1.3647498184       -0.9158099921
 C          2.2920781105        1.6828992744       -0.3807388910
 C          1.4336642396        0.6806425756        0.0561259899
 C          0.1167099309        1.0470023937        0.6200385227
 O         -0.1886350002        2.2220579598        0.7961268378
 H         -4.6972962945        1.3356284568       -2.2374391593
 H         -3.0937675095        1.7565345750       -2.8295048316
 H         -3.8373395006        2.7186255271       -1.5445437650
 H         -2.9763598008       -1.3330232592       -0.6330709538
 H         -1.7897182171       -0.6753290450       -1.7530748577
 H         -3.4715474575       -0.8333521811       -2.2517781808
 H         -3.0286855082        2.2475504390        0.5690086884
 H         -2.8171875694       -0.4706799378        1.6082795490
 H         -2.0937105698        0.9973327064        2.2872585625
 H         -1.9712498590       -2.1381823197        1.6846678271
 H          3.3649728509       -2.0070754335       -0.6418214047
 H          4.8885374792       -0.2104316473       -1.4291610987
 H          4.1864062034        2.1517664743       -1.2529373580
 H          1.9661939104        2.7084545691       -0.2918783646
  32
  -51.420341639999997        2.0866427196756691E-004 !
 C         -3.6343698581        2.2617757819        1.4655374532
 C         -3.0453593343        1.0759008389        0.7625724665
 C         -2.6956156233       -0.0755204821        1.6605086821
 C         -2.8511014058        1.0796405563       -0.5513876135
 C         -2.2441743188       -0.0500910246       -1.3477453357
 C         -0.8417889205       -0.3391508367       -0.8758126625
 C         -0.4152805716       -1.5620321429       -0.4691845328
 O         -1.1499695500       -2.6834048753       -0.4875275950
 C          0.9525956215       -1.8020817103        0.0657348797
 O          1.3005063006       -2.9211279198        0.4129708373
 C          1.8331335463       -0.6302619997        0.1597814263
 C          3.1059202259       -0.7718527223        0.7058383718
 C          3.9520173779        0.3205392802        0.8025223728
 C          3.5332661930        1.5623857093        0.3510799281
 C          2.2695319100        1.7116081437       -0.1988413827
 C          1.4106567167        0.6231802993       -0.2988486534
 C          0.0680359341        0.8093603941       -0.8895834228
 O         -0.2611121801        1.8844649516       -1.3800433776
 H         -4.5886860169        1.9953326993        1.9183342038
 H         -3.7909628692        3.0890751256        0.7790227378
 H         -2.9675298340        2.5885731280        2.2622101313
 H         -2.7963508565       -1.0313365103        1.1551027453
 H         -3.3395976129       -0.0765258756        2.5365286246
 H         -1.6638505811        0.0155200254        2.0031374525
 H         -3.1106131130        1.9607889220       -1.1191219481
 H         -2.2012640517        0.2518543737       -2.3958226032
 H         -2.8827189595       -0.9326815990       -1.2693501090
 H         -2.0141814170       -2.5533287483       -0.9142494724
 H          3.4100135284       -1.7503728628        1.0461878625
 H          4.9358166324        0.2010922838        1.2277306524
 H          4.1883510375        2.4157366854        0.4259688394
 H          1.9243969561        2.6688914200       -0.5597626051
  32
  -51.420341270000002        2.0858258920161389E-004 !
 C         -3.6488304258        2.2538079446        1.4653482504
 C         -3.0543556244        1.0718895542        0.7602646374
 C         -2.7095994611       -0.0855422601        1.6526851726
 C         -2.8513772502        1.0822010463       -0.5523530741
 C         -2.2405853991       -0.0448654186       -1.3492894628
 C         -0.8391829074       -0.3344814733       -0.8746392864
 C         -0.4133984274       -1.5588174943       -0.4715153640
 O         -1.1476179722       -2.6801877167       -0.4961564586
 C          0.9531353770       -1.8006835803        0.0660624141
 O          1.2988097623       -2.9200824942        0.4144019379
 C          1.8357256519       -0.6303742051        0.1601292829
 C          3.1098430435       -0.7753151074        0.7024378005
 C          3.9578559202        0.3155201761        0.7992369146
 C          3.5395994826        1.5591370390        0.3519354678
 C          2.2747758885        1.7115326057       -0.1944306640
 C          1.4140070677        0.6246028057       -0.2948196485
 C          0.0704260804        0.8141814222       -0.8825159513
 O         -0.2588286000        1.8918346917       -1.3673282171
 H         -2.9877631260        2.5771106548        2.2682116952
 H         -4.6058635407        1.9838188916        1.9103130040
 H         -3.8019189077        3.0844801012        0.7820507339
 H         -2.8353098392       -1.0391548767        1.1478416374
 H         -3.3389849768       -0.0763552691        2.5391509736
 H         -1.6708520382       -0.0134295877        1.9781915220
 H         -3.1068898170        1.9660052992       -1.1177958651
 H         -2.1953292025        0.2587963553       -2.3967389936
 H         -2.8785204553       -0.9281384421       -1.2735764249
 H         -2.0104675640       -2.5493770535       -0.9252845251
 H          3.4125515828       -1.7547285724        1.0414928970
 H          4.9423282538        0.1940077165        1.2223905419
 H          4.1968398617        2.4109090828        0.4266151287
 H          1.9295465120        2.6704252874       -0.5512045541
  32
  -51.420335350000002        2.0728000505167409E-004 !
 C         -3.7139236088        1.7318071158       -1.9324009254
 C         -3.0944171702        0.8103823558       -0.9253322993
 C         -2.8064570032       -0.5745049223       -1.4297580094
 C         -2.8241954553        1.2190918393        0.3093684991
 C         -2.1838293180        0.3755438310        1.3849385957
 C         -0.7999950474       -0.0521303499        0.9663573616
 C         -0.3891793163       -1.3449036417        0.9140528949
 O         -1.1210302386       -2.4050318365        1.2843156308
 C          0.9573958290       -1.7438544051        0.4213848775
 O          1.2930897303       -2.9189320659        0.4025186642
 C          1.8318926727       -0.6587989453       -0.0427754288
 C          3.0809992419       -0.9657622272       -0.5755495379
 C          3.9218971869        0.0431731218       -1.0153110918
 C          3.5220443370        1.3671088507       -0.9221466696
 C          2.2821034152        1.6822920658       -0.3885070279
 C          1.4279735445        0.6782391244        0.0527073341
 C          0.1099459963        1.0414973554        0.6160188807
 O         -0.1983962908        2.2158024627        0.7916131168
 H         -3.0865857078        1.7841826928       -2.8211020401
 H         -3.8339943262        2.7335391465       -1.5292103102
 H         -4.6901634001        1.3555048032       -2.2356483027
 H         -3.4615821146       -0.8150340607       -2.2630588635
 H         -2.9417412708       -1.3238756886       -0.6550419611
 H         -1.7763505162       -0.6409517672       -1.7823539802
 H         -3.0405659084        2.2402325779        0.5859516096
 H         -2.8211648234       -0.4855141476        1.5972849190
 H         -2.1013473276        0.9764416919        2.2922934448
 H         -1.9675185900       -2.1484303788        1.6884705117
 H          3.3708733753       -2.0041577098       -0.6334873998
 H          4.8868244111       -0.2044785539       -1.4281407606
 H          4.1738716807        2.1553571018       -1.2639801205
 H          1.9513543163        2.7067345192       -0.3051644811
  32
  -51.420333960000001        2.0697534291008504E-004 !
 C         -3.6939790632        2.1665551988        1.5299237561
 C         -3.0908236088        1.0215267559        0.7733626440
 C         -2.7987958808       -0.1973697512        1.6000528624
 C         -2.8374996114        1.1117469239       -0.5275761403
 C         -2.2177796493        0.0245385552       -1.3715182908
 C         -0.8229820093       -0.2870062513       -0.8906639022
 C         -0.4086988004       -1.5253458943       -0.5190052638
 O         -1.1460111107       -2.6422652210       -0.5930375679
 C          0.9463959248       -1.7894047345        0.0368036995
 O          1.2746875635       -2.9175749044        0.3738137832
 C          1.8407961937       -0.6308279799        0.1590504357
 C          3.1117339210       -0.8013233150        0.7013425452
 C          3.9731501592        0.2768815500        0.8194002787
 C          3.5714314161        1.5332977526        0.3935579539
 C          2.3087839459        1.7117016418       -0.1500064404
 C          1.4344533861        0.6378249204       -0.2715069113
 C          0.0924935340        0.8561771567       -0.8533385772
 O         -0.2295657342        1.9524917271       -1.2999138276
 H         -4.6681757541        1.8826769561        1.9263952641
 H         -3.8148729040        3.0389999459        0.8938045201
 H         -3.0559254403        2.4312686318        2.3718374478
 H         -3.4499370502       -0.2263106984        2.4701661989
 H         -1.7668371802       -0.1740766039        1.9535126748
 H         -2.9358997973       -1.1139669882        1.0333723489
 H         -3.0536889631        2.0351763486       -1.0439843316
 H         -2.1585658878        0.3785839740       -2.4022078056
 H         -2.8566816816       -0.8607823317       -1.3456589121
 H         -1.9966473029       -2.4952698374       -1.0407118857
 H          3.4017959173       -1.7904296743        1.0225948058
 H          4.9553694294        0.1351544035        1.2413034056
 H          4.2396839053        2.3750600747        0.4828990194
 H          1.9758460473        2.6816692607       -0.4881023467
  32
  -51.420357680000002        2.1223625221558046E-004 !
 C         -3.6959871461        2.1570654684        1.5356645114
 C         -3.0900212630        1.0163776562        0.7747180387
 C         -2.7941989115       -0.2037028222        1.5983841823
 C         -2.8389523799        1.1116277945       -0.5261518715
 C         -2.2159717883        0.0305442506       -1.3757077896
 C         -0.8225172472       -0.2831199821       -0.8928229601
 C         -0.4098807537       -1.5222485372       -0.5223623508
 O         -1.1482322768       -2.6385062817       -0.5976624781
 C          0.9444734191       -1.7882586196        0.0343009783
 O          1.2710966343       -2.9168245094        0.3713651155
 C          1.8403260855       -0.6308940441        0.1575904135
 C          3.1116433392       -0.8038731913        0.6982115458
 C          3.9743343321        0.2730813198        0.8176914221
 C          3.5730303965        1.5311691124        0.3962850460
 C          2.3099518450        1.7121652791       -0.1453928727
 C          1.4348467467        0.6391868442       -0.2694272538
 C          0.0931645499        0.8598069410       -0.8508912275
 O         -0.2287689335        1.9579109599       -1.2930868234
 H         -4.6716665347        1.8713811984        1.9270719402
 H         -3.8146616990        3.0332852226        0.9044114570
 H         -3.0611297640        2.4171042141        2.3814178450
 H         -1.7641466904       -0.1752121099        1.9570090776
 H         -2.9226132420       -1.1193670395        1.0282530548
 H         -3.4493002003       -0.2399297762        2.4652115676
 H         -3.0595348159        2.0360642332       -1.0388063541
 H         -2.1531514937        0.3926261046       -2.4032988548
 H         -2.8538589428       -0.8555613763       -1.3596732173
 H         -1.9992095451       -2.4909865015       -1.0446434200
 H          3.4011605083       -1.7941338086        1.0163046360
 H          4.9572594658        0.1292817952        1.2372998729
 H          4.2422073683        2.3721292937        0.4869716866
 H          1.9774486189        2.6831703657       -0.4809111705
  32
  -51.420330450000002        2.0620800779196983E-004 !
 C         -3.6493195740        2.3085347608        1.4068604427
 C         -3.0526440996        1.1042342463        0.7424524928
 C         -2.6980358081       -0.0171771515        1.6759236594
 C         -2.8566908923        1.0666049952       -0.5705431030
 C         -2.2502141218       -0.0892360323       -1.3283289234
 C         -0.8437599063       -0.3623707823       -0.8577171792
 C         -0.4082656354       -1.5792317187       -0.4423175485
 O         -1.1351482500       -2.7057252939       -0.4503995399
 C          0.9621434485       -1.8059922169        0.0922015445
 O          1.3162761842       -2.9190071669        0.4520661974
 C          1.8379282051       -0.6292862602        0.1680900157
 C          3.1140664938       -0.7589602183        0.7094583659
 C          3.9575575521        0.3370825562        0.7843938368
 C          3.5329262407        1.5703764710        0.3152305778
 C          2.2654343258        1.7077751871       -0.2289558621
 C          1.4086111704        0.6158439410       -0.3063530251
 C          0.0609277514        0.7897466871       -0.8898414628
 O         -0.2754942872        1.8576083502       -1.3910979639
 H         -3.8041583929        3.1147150241        0.6952177532
 H         -2.9890894585        2.6607688596        2.1982129878
 H         -4.6059814675        2.0520217173        1.8607901897
 H         -3.3422242381        0.0059136018        2.5515403650
 H         -1.6666804006        0.0897391858        2.0155996203
 H         -2.7934034983       -0.9889299493        1.2001768821
 H         -3.1186268544        1.9277780306       -1.1670104165
 H         -2.2171602447        0.1726863554       -2.3874839356
 H         -2.8869271190       -0.9688361024       -1.2099215375
 H         -1.9988697023       -2.5876871437       -0.8814197154
 H          3.4225537664       -1.7311701491        1.0636221541
 H          4.9438133337        0.2272698691        1.2063127997
 H          4.1872508648        2.4257903455        0.3711623684
 H          1.9152523873        2.6587045620       -0.6019212732
  32
  -51.420329770000002        2.0605967955487575E-004 !
 C         -3.6888428475        1.7808186554       -1.9229343965
 C         -3.0791159618        0.8364933780       -0.9312916852
 C         -2.7771158765       -0.5328691113       -1.4681828216
 C         -2.8273521964        1.2138713047        0.3170182069
 C         -2.1973157568        0.3435896446        1.3769387121
 C         -0.8070455573       -0.0714143141        0.9660110379
 C         -0.3812429528       -1.3599038744        0.9319595046
 O         -1.0987233070       -2.4226929068        1.3233158950
 C          0.9652032861       -1.7510904868        0.4326671504
 O          1.3096397530       -2.9236811113        0.4169089618
 C          1.8293450551       -0.6617224646       -0.0409492190
 C          3.0800099864       -0.9612648954       -0.5742288479
 C          3.9114447648        0.0521469792       -1.0215895434
 C          3.5012400900        1.3733100735       -0.9340421154
 C          2.2595505850        1.6811315885       -0.4003098238
 C          1.4144079031        0.6723283170        0.0473357756
 C          0.0935261665        1.0277417596        0.6086633267
 O         -0.2241156159        2.2003076924        0.7779078338
 H         -3.8120742732        2.7730429298       -1.4978363971
 H         -4.6624866719        1.4123621393       -2.2437293890
 H         -3.0535844339        1.8531813045       -2.8044819739
 H         -2.8851277301       -1.3003338250       -0.7070707048
 H         -1.7525096561       -0.5732905290       -1.8405313367
 H         -3.4427737952       -0.7672401653       -2.2950469135
 H         -3.0523845248        2.2261651925        0.6178935415
 H         -2.8341849826       -0.5260944155        1.5530479621
 H         -2.1310021507        0.9180467158        2.3027124824
 H         -1.9383821671       -2.1705862693        1.7439403657
 H          3.3779209688       -1.9976059456       -0.6276332710
 H          4.8774976535       -0.1897428018       -1.4351469134
 H          4.1463542782        2.1650723577       -1.2804858875
 H          1.9206683481        2.7032776897       -0.3208289584
  32
  -51.420328159999997        2.0570891585870206E-004 !
 C         -3.6516707224        2.2840903530        1.4349297269
 C         -3.0572077239        1.0892989171        0.7518172927
 C         -2.7159293996       -0.0513612587        1.6663484961
 C         -2.8510354626        1.0761498877       -0.5602315003
 C         -2.2454013776       -0.0683348991       -1.3360275725
 C         -0.8402428212       -0.3488775004       -0.8661780054
 C         -0.4083771654       -1.5700604767       -0.4599278775
 O         -1.1372202926       -2.6951194146       -0.4810996826
 C          0.9587049918       -1.8034550000        0.0801171913
 O          1.3081630048       -2.9193989159        0.4357923488
 C          1.8372222165       -0.6294920664        0.1663421317
 C          3.1109928582       -0.7657675686        0.7116488867
 C          3.9567022002        0.3277239242        0.7970920660
 C          3.5372541797        1.5649133321        0.3334159427
 C          2.2721708347        1.7089195755       -0.2145211996
 C          1.4127422755        0.6197331406       -0.3015345540
 C          0.0672854467        0.8011607119       -0.8878010260
 O         -0.2651238777        1.8731694254       -1.3828300438
 H         -3.8023608279        3.1028040322        0.7367706403
 H         -2.9919197543        2.6203827632        2.2335828860
 H         -4.6099548517        2.0230172623        1.8825971959
 H         -1.6880344524        0.0458556038        2.0187990756
 H         -2.8084742416       -1.0132471206        1.1707755288
 H         -3.3692442243       -0.0440008926        2.5354048950
 H         -3.1030508173        1.9505090520       -1.1416567065
 H         -2.2099238136        0.2105278703       -2.3906682694
 H         -2.8824649861       -0.9494288557       -1.2324588780
 H         -1.9984066204       -2.5720233833       -0.9156329469
 H          3.4156391957       -1.7409238323        1.0608969788
 H          4.9411724449        0.2127920194        1.2217519208
 H          4.1935580774        2.4183199925        0.3973667064
 H          1.9259456385        2.6627264737       -0.5837198852
  32
  -51.420321489999999        2.0426210143140232E-004 !
 C         -3.6656985293        2.2335464390        1.4784544586
 C         -3.0714342621        1.0589559985        0.7611192837
 C         -2.7552602456       -0.1188970470        1.6368825789
 C         -2.8443385545        1.0924345278       -0.5471723611
 C         -2.2327792146       -0.0271773615       -1.3541048522
 C         -0.8329217103       -0.3216357576       -0.8773380130
 C         -0.4086034024       -1.5506903866       -0.4873991433
 O         -1.1406597395       -2.6727545368       -0.5352492058
 C          0.9523045905       -1.7971869907        0.0625003861
 O          1.2906565643       -2.9176226467        0.4147097569
 C          1.8386624939       -0.6303573941        0.1630297284
 C          3.1124502768       -0.7822458745        0.7042685359
 C          3.9655954165        0.3044703749        0.8030288924
 C          3.5528584856        1.5509669441        0.3589280389
 C          2.2877524739        1.7106947309       -0.1847318924
 C          1.4216865560        0.6280307581       -0.2869431917
 C          0.0773871228        0.8263108925       -0.8700827110
 O         -0.2505673284        1.9099054496       -1.3425522945
 H         -3.8014806233        3.0770211022        0.8075325424
 H         -3.0133976768        2.5367937317        2.2961371703
 H         -4.6313864597        1.9647349732        1.9051967624
 H         -2.8672832575       -1.0608471613        1.1073165681
 H         -3.4102571991       -0.1280113056        2.5046334133
 H         -1.7260383396       -0.0562342017        1.9936162688
 H         -3.0779438213        1.9904223857       -1.0995721764
 H         -2.1850208850        0.2859397348       -2.3986526573
 H         -2.8710505245       -0.9107584389       -1.2862376055
 H         -1.9964068781       -2.5388176752       -0.9774760550
 H          3.4114465758       -1.7641083079        1.0396434540
 H          4.9499152043        0.1772644544        1.2245770506
 H          4.2141541984        2.3995584883        0.4343824570
 H          1.9464489791        2.6722657691       -0.5380710463
  32
  -51.420311689999998        2.0215478587400188E-004 !
 C         -3.7067696932        1.7644478722       -1.9174364140
 C         -3.0822127863        0.8287875703       -0.9265600498
 C         -2.7632141846       -0.5358239591       -1.4657662251
 C         -2.8337831511        1.2107401153        0.3210277542
 C         -2.1919051429        0.3530270453        1.3844457907
 C         -0.8053721460       -0.0663938025        0.9660296695
 C         -0.3851219932       -1.3565117009        0.9223054439
 O         -1.1099851947       -2.4193303084        1.2993290767
 C          0.9639913994       -1.7491018859        0.4315685168
 O          1.3089050490       -2.9217465539        0.4225906492
 C          1.8303145077       -0.6608355067       -0.0405771370
 C          3.0805233148       -0.9625929790       -0.5738501176
 C          3.9142101018        0.0494821624       -1.0201694160
 C          3.5064265697        1.3712902081       -0.9318989746
 C          2.2653427187        1.6813026224       -0.3979438317
 C          1.4177860540        0.6740645484        0.0485523060
 C          0.0971511256        1.0314205800        0.6096809088
 O         -0.2193786699        2.2044927052        0.7782706017
 H         -3.0738786234        1.8458468064       -2.7999849754
 H         -3.8435766363        2.7548616030       -1.4922974983
 H         -4.6756901368        1.3821467168       -2.2367457877
 H         -2.8459577019       -1.3044370740       -0.7030130495
 H         -1.7437552850       -0.5572096842       -1.8541001506
 H         -3.4370729007       -0.7835177676       -2.2825046707
 H         -3.0737820015        2.2201929614        0.6202251397
 H         -2.8278591151       -0.5126794822        1.5825122870
 H         -2.1144310533        0.9408205936        2.3008535395
 H         -1.9571178710       -2.1654298132        1.7036657634
 H          3.3767619508       -1.9994854841       -0.6273760217
 H          4.8799890021       -0.1941179993       -1.4334927344
 H          4.1536201763        2.1620985942       -1.2764480744
 H          1.9287710164        2.7041870734       -0.3179268714
  32
  -51.420309930000002        2.0177863854939091E-004 !
 C         -3.6690552993        1.8704577258       -1.8809589845
 C         -3.0448824168        0.8886275619       -0.9353676866
 C         -2.6531895415       -0.4201011436       -1.5590389553
 C         -2.8547782192        1.1887167104        0.3441470580
 C         -2.2207152332        0.2805219826        1.3693330709
 C         -0.8226616978       -0.1116347366        0.9622692557
 C         -0.3737347901       -1.3925875061        0.9443055695
 O         -1.0796177242       -2.4650371099        1.3305463567
 C          0.9890221393       -1.7633488905        0.4745456961
 O          1.3657670179       -2.9256977581        0.5031647720
 C          1.8273158934       -0.6669689675       -0.0282396533
 C          3.0808792948       -0.9516459822       -0.5626857941
 C          3.8866161100        0.0689850483       -1.0397926533
 C          3.4478141734        1.3824791241       -0.9806866142
 C          2.2038765901        1.6758715700       -0.4438658772
 C          1.3843605092        0.6595993753        0.0332806470
 C          0.0619092415        0.9992023544        0.6010322344
 O         -0.2708327160        2.1677413351        0.7682237133
 H         -3.8528267376        2.8239708143       -1.3939128064
 H         -4.6135492170        1.4809138741       -2.2589749295
 H         -3.0110502356        2.0331845103       -2.7333813843
 H         -3.3190772787       -0.6546859572       -2.3861286692
 H         -2.6826559487       -1.2383857551       -0.8454222944
 H         -1.6384075069       -0.3563713291       -1.9546483759
 H         -3.1482866999        2.1632283418        0.7045767664
 H         -2.8532291912       -0.5999103294        1.5056582050
 H         -2.1684894433        0.8172982586        2.3186199072
 H         -1.9374518594       -2.2248719497        1.7206183309
 H          3.4014404624       -1.9820867367       -0.5936861293
 H          4.8550224651       -0.1614411196       -1.4546614117
 H          4.0729963436        2.1797963762       -1.3506572183
 H          1.8433710577        2.6920697497       -0.3854117558
  32
  -51.420257970000002        1.9098357771313621E-004 !
 C         -3.6541298428        1.9212061349       -1.8568625581
 C         -3.0295251376        0.9183985843       -0.9339256809
 C         -2.6001112194       -0.3589464351       -1.5961440028
 C         -2.8676449110        1.1762130348        0.3585154534
 C         -2.2338864266        0.2446233820        1.3624532526
 C         -0.8314932319       -0.1341356512        0.9566692557
 C         -0.3678583332       -1.4100002334        0.9531552946
 O         -1.0621800713       -2.4865443903        1.3489876244
 C          0.9998840983       -1.7701940650        0.4896406665
 O          1.3883485361       -2.9283564590        0.5282782591
 C          1.8272294743       -0.6696474000       -0.0221541947
 C          3.0864350153       -0.9454018211       -0.5480580216
 C          3.8809099290        0.0789376028       -1.0359141135
 C          3.4242862875        1.3871285777       -0.9977524809
 C          2.1751791056        1.6719409188       -0.4682500697
 C          1.3677199019        0.6519528962        0.0214187109
 C          0.0425055001        0.9827259809        0.5879735967
 O         -0.3008139003        2.1490362353        0.7482115784
 H         -3.8713542529        2.8507709921       -1.3383709377
 H         -4.5797968614        1.5262522661       -2.2740765277
 H         -2.9788334208        2.1318911103       -2.6849042149
 H         -2.6112566870       -1.1993148801       -0.9087720349
 H         -1.5858822779       -0.2554383032       -1.9847150968
 H         -3.2561720099       -0.5849139659       -2.4334156235
 H         -3.1881231052        2.1311078123        0.7481150246
 H         -2.8640882724       -0.6414642694        1.4724316055
 H         -2.1899988627        0.7566143429        2.3259574540
 H         -1.9255954050       -2.2540405199        1.7313336340
 H          3.4203908427       -1.9719584944       -0.5631938949
 H          4.8545044649       -0.1442486551       -1.4422145875
 H          4.0402505868        2.1873045438       -1.3764350681
 H          1.8017908365        2.6841999950       -0.4250134026
  32
  -51.420150900000003        1.7052578587883459E-004 !
 C         -3.7545581317        2.3286154840        1.3184978999
 C         -3.1321401578        1.1085546470        0.7055898924
 C         -2.9024638758       -0.0099628648        1.6774509403
 C         -2.8405949616        1.0669147344       -0.5890638875
 C         -2.2200947172       -0.0968785840       -1.3253440985
 C         -0.8160437909       -0.3638234197       -0.8427140666
 C         -0.3801019547       -1.5804525844       -0.4269805273
 O         -1.1086720844       -2.7067515429       -0.4313755857
 C          0.9902705688       -1.8075336839        0.1074023450
 O          1.3423430875       -2.9197517192        0.4715250980
 C          1.8681158965       -0.6321338081        0.1766775003
 C          3.1472144987       -0.7633148311        0.7104854767
 C          3.9920727004        0.3319864119        0.7814697931
 C          3.5655353955        1.5661389417        0.3165344574
 C          2.2952319106        1.7048916569       -0.2207185213
 C          1.4374054433        0.6135393061       -0.2949228091
 C          0.0886362358        0.7886391060       -0.8748474073
 O         -0.2482720474        1.8562062199       -1.3758304356
 H         -3.1145597039        2.7166854390        2.1099383478
 H         -4.7164439237        2.0773145476        1.7633760552
 H         -3.9030964537        3.1091713815        0.5776584954
 H         -3.8464913457       -0.2956664220        2.1396159221
 H         -2.2368117611        0.3259191656        2.4721298608
 H         -2.4613273004       -0.8848822877        1.2142392554
 H         -3.0350857655        1.9403895139       -1.1941038726
 H         -2.1744625720        0.1574500890       -2.3862183189
 H         -2.8552177863       -0.9772068623       -1.2098469362
 H         -1.9765080416       -2.5892668582       -0.8551416462
 H          3.4564425233       -1.7358184619        1.0631551654
 H          4.9806831387        0.2209107726        1.1976480000
 H          4.2210200003        2.4208868421        0.3690862345
 H          1.9440873465        2.6561779995       -0.5916966205
