  32
  -51.431772760000001       0.14680451616883775      !
 C         -4.5094121383        0.2638806643       -1.7847132293
 C         -3.6703727114        0.4466742681       -0.5554137409
 C         -3.7444404304        1.8086399908        0.0734727934
 C         -2.9455642879       -0.5514743492       -0.0634793132
 C         -2.0760147707       -0.4948733257        1.1652166119
 C         -0.6372067542       -0.4540723449        0.7315739734
 C          0.0153585427       -1.5882258037        0.3683668859
 O         -0.5725194745       -2.7900879124        0.4216699076
 C          1.4194987505       -1.5972414865       -0.0958465349
 O          1.9376577060       -2.6752155587       -0.3815184079
 C          2.1033924414       -0.3083159650       -0.1747008691
 C          3.4239162306       -0.2469073631       -0.6118469289
 C          4.0799301715        0.9711484182       -0.6861181790
 C          3.4197655081        2.1345472749       -0.3247667867
 C          2.1036011609        2.0822548678        0.1110865213
 C          1.4333957692        0.8681499274        0.1911991119
 C          0.0280404993        0.8439712121        0.6607174094
 O         -0.5427573643        1.8825360368        0.9836473148
 H         -5.5482876724        0.5045955444       -1.5648453983
 H         -4.4549123061       -0.7568296031       -2.1533243353
 H         -4.1708360610        0.9386359316       -2.5701266239
 H         -2.7573472781        2.1614677547        0.3659550523
 H         -4.3693871629        1.7800326374        0.9655873284
 H         -4.1767182077        2.5234362039       -0.6213449133
 H         -2.9266700932       -1.5048330115       -0.5746021388
 H         -2.2429345578       -1.3944931462        1.7602454398
 H         -2.2960598132        0.3901531194        1.7589650893
 H          0.0801225684       -3.4648271495        0.1367052851
 H          3.9166911598       -1.1672097794       -0.8873015159
 H          5.1028202111        1.0099820020       -1.0251173623
 H          3.9266027731        3.0848516498       -0.3802505101
 H          1.5735507151        2.9782109641        0.3978675321
  32
  -51.431770880000002       0.14651275265364483      !
 C         -4.4802659391        0.3923941083       -1.8089835550
 C         -3.6750986825        0.4950667411       -0.5485841967
 C         -3.8010611995        1.7963057688        0.1912853835
 C         -2.9274766166       -0.5175413578       -0.1248960396
 C         -2.0833283820       -0.5341878237        1.1223213355
 C         -0.6375515749       -0.4839674682        0.7149795233
 C          0.0358761998       -1.6153022231        0.3827173262
 O         -0.5356175671       -2.8249233134        0.4480529396
 C          1.4473550723       -1.6130305578       -0.0584587066
 O          1.9860310308       -2.6891507850       -0.3116023631
 C          2.1113054874       -0.3154827110       -0.1611262911
 C          3.4342742812       -0.2430031759       -0.5891424613
 C          4.0692520008        0.9839218003       -0.6931198680
 C          3.3857679834        2.1450961337       -0.3697789919
 C          2.0681634145        2.0814592011        0.0598753865
 C          1.4186176530        0.8583537616        0.1690722227
 C          0.0117405348        0.8217398382        0.6337636015
 O         -0.5719692967        1.8559628348        0.9466206300
 H         -4.1540563400        1.1502163347       -2.5202946857
 H         -5.5325826095        0.5699061039       -1.5930038537
 H         -4.3751488463       -0.5869999455       -2.2676328020
 H         -4.3718742371        1.6588119113        1.1089235410
 H         -4.3122839654        2.5337004725       -0.4210487562
 H         -2.8211096029        2.1866014883        0.4608801815
 H         -2.8685098892       -1.4254968746       -0.7105829397
 H         -2.2681588320       -1.4610326512        1.6680485371
 H         -2.3081588668        0.3227471510        1.7540863883
 H          0.1334132514       -3.4949435450        0.1910803339
 H          3.9450618933       -1.1618938916       -0.8350323047
 H          5.0939484687        1.0316971935       -1.0252753469
 H          3.8758334890        3.1024550687       -0.4498711775
 H          1.5205972925        2.9755509376        0.3180450108
  32
  -51.431754419999997       0.14398290631773908      !
 C         -4.4859773467        0.4103515669       -1.8073409483
 C         -3.6824191772        0.5017406969       -0.5448817375
 C         -3.8205128710        1.7906359537        0.2142598467
 C         -2.9255859196       -0.5100319240       -0.1358100164
 C         -2.0832768220       -0.5380815474        1.1124413804
 C         -0.6365375546       -0.4870608531        0.7090174782
 C          0.0402348160       -1.6183713203        0.3836986031
 O         -0.5286211734       -2.8290779396        0.4521696916
 C          1.4529617475       -1.6151236929       -0.0537580097
 O          1.9937886516       -2.6912536707       -0.3021941141
 C          2.1150732604       -0.3168590728       -0.1586827606
 C          3.4396565873       -0.2436531093       -0.5816886498
 C          4.0729152730        0.9839550966       -0.6878248244
 C          3.3859875778        2.1451146560       -0.3719346230
 C          2.0666601320        2.0807829755        0.0523925200
 C          1.4189025375        0.8570087510        0.1641759733
 C          0.0103543009        0.8196896535        0.6240391169
 O         -0.5762730109        1.8540172667        0.9307379807
 H         -4.1713852373        1.1860864751       -2.5044892397
 H         -5.5410349576        0.5677666321       -1.5883727863
 H         -4.3660721590       -0.5587598553       -2.2840984310
 H         -4.3441872124        2.5302736857       -0.3846215378
 H         -2.8434974731        2.1887145748        0.4830531394
 H         -4.3841296144        1.6332561332        1.1330720124
 H         -2.8581385489       -1.4087567039       -0.7347472330
 H         -2.2704540356       -1.4688463663        1.6506897109
 H         -2.3081758718        0.3142940740        1.7503060170
 H          0.1434135516       -3.4986359630        0.2018283405
 H          3.9532417434       -1.1624931195       -0.8215214771
 H          5.0990603636        1.0321960232       -1.0155161920
 H          3.8746729662        3.1029936297       -0.4535392208
 H          1.5166144261        2.9748256604        0.3054058761
  32
  -51.431750090000001       0.14332468811787805      !
 C         -4.4830936593        0.4322439923       -1.8084317041
 C         -3.6829270471        0.5103479151       -0.5430164066
 C         -3.8267437389        1.7885445148        0.2325506927
 C         -2.9239312342       -0.5040809021       -0.1448156716
 C         -2.0844483376       -0.5450339096        1.1049616934
 C         -0.6368354405       -0.4925374519        0.7049642814
 C          0.0436423539       -1.6231540077        0.3851651097
 O         -0.5223524596       -2.8350679649        0.4555647094
 C          1.4578103351       -1.6176120726       -0.0478051346
 O          2.0021061640       -2.6930582267       -0.2915237855
 C          2.1167278065       -0.3180367864       -0.1557150213
 C          3.4427912748       -0.2428578123       -0.5738521831
 C          4.0721820583        0.9862333781       -0.6850614829
 C          3.3794814930        2.1470169142       -0.3807523738
 C          2.0591838307        2.0807309425        0.0403154058
 C          1.4157276821        0.8553034113        0.1585714392
 C          0.0071651739        0.8155812215        0.6181225327
 O         -0.5810129063        1.8489112025        0.9249909324
 H         -4.1676850843        1.2170433612       -2.4952716889
 H         -5.5389995946        0.5854863751       -1.5903354215
 H         -4.3603957017       -0.5309794723       -2.2968622760
 H         -2.8513752839        2.1890868386        0.5034657486
 H         -4.3869528432        1.6168661883        1.1509499653
 H         -4.3561900432        2.5322149782       -0.3560391568
 H         -2.8535761933       -1.3957255392       -0.7540346291
 H         -2.2741888476       -1.4801522397        1.6346350582
 H         -2.3096459503        0.3021399907        1.7496829541
 H          0.1518496247       -3.5035808217        0.2081633110
 H          3.9606389589       -1.1614450197       -0.8051416951
 H          5.0993692166        1.0360610638       -1.0092527035
 H          3.8650084306        3.1062071951       -0.4666769221
 H          1.5052429890        2.9744266138        0.2858708460
  32
  -51.430920129999997        5.9552198406233076E-002 !
 C         -4.5171055545       -0.3383562383       -1.6062855843
 C         -3.4925872698        0.1319330409       -0.6158648627
 C         -2.9827933963        1.5193728911       -0.8668400908
 C         -3.0941953732       -0.6453972686        0.3841602296
 C         -2.0701759298       -0.2823771465        1.4287550001
 C         -0.6786711842       -0.2839371502        0.8567898696
 C         -0.1594273278       -1.4070062463        0.2969516310
 O         -0.8461416600       -2.5519775118        0.2483321677
 C          1.1980014980       -1.4628314938       -0.2900593450
 O          1.5852119103       -2.5244831549       -0.7734440421
 C          1.9947563303       -0.2389651887       -0.2443093664
 C          3.2822291788       -0.2262258527       -0.7743590291
 C          4.0455242201        0.9291564068       -0.7290098519
 C          3.5258768189        2.0781978485       -0.1550554242
 C          2.2430880508        2.0743847016        0.3738803658
 C          1.4669751621        0.9230155058        0.3369955193
 C          0.1001243482        0.9498237229        0.9092427792
 O         -0.3509784913        1.9787018685        1.4076348229
 H         -4.8081040181       -1.3670688910       -1.4132422768
 H         -4.1192239832       -0.2679969786       -2.6176026667
 H         -5.4038299878        0.2921535965       -1.5548497331
 H         -3.8150584286        2.1929014240       -1.0636509505
 H         -2.3399441994        1.5219017562       -1.7477642970
 H         -2.4103839498        1.9074593350       -0.0301562882
 H         -3.5007183885       -1.6431116389        0.4667776183
 H         -2.1183492074       -1.0179032146        2.2337098734
 H         -2.2650345219        0.7071875292        1.8467245917
 H         -0.2906005338       -3.2279227667       -0.1962281414
 H          3.6642768910       -1.1341524277       -1.2163302271
 H          5.0420488930        0.9306915975       -1.1408745320
 H          4.1161918149        2.9799697535       -0.1177004855
 H          1.8212537797        2.9604022438        0.8243801137
  32
  -51.430918960000000        5.9478513170107217E-002 !
 C         -4.5182002559       -0.3472103296       -1.6025127842
 C         -3.4926439348        0.1268830247       -0.6150514762
 C         -2.9804179918        1.5120292290       -0.8737675551
 C         -3.0950959596       -0.6454082878        0.3892165152
 C         -2.0696351413       -0.2780579120        1.4308004047
 C         -0.6789590691       -0.2805267521        0.8567611247
 C         -0.1616366562       -1.4035627002        0.2950371562
 O         -0.8499138694       -2.5475095296        0.2451988233
 C          1.1955928042       -1.4606408237       -0.2922466165
 O          1.5804264482       -2.5217382151       -0.7787256149
 C          1.9942570286       -0.2381010350       -0.2450801269
 C          3.2817691668       -0.2268404776       -0.7750799993
 C          4.0475033554        0.9268340886       -0.7270123131
 C          3.5299921431        2.0757605995       -0.1508905235
 C          2.2470624140        2.0734714782        0.3777436118
 C          1.4685259547        0.9238171253        0.3382646123
 C          0.1012910777        0.9523222009        0.9096037735
 O         -0.3490064010        1.9817950928        1.4075160136
 H         -4.8117464435       -1.3738400988       -1.4031231146
 H         -4.1199718542       -0.2845911912       -2.6141313466
 H         -5.4035083726        0.2855393496       -1.5558246858
 H         -2.4073490911        1.9037941365       -0.0391623728
 H         -3.8115362754        2.1857668109       -1.0744209923
 H         -2.3378074397        1.5087950644       -1.7548020925
 H         -3.5029727398       -1.6420896173        0.4774412514
 H         -2.1158646123       -1.0107204643        2.2385191105
 H         -2.2645167412        0.7127877378        1.8458293495
 H         -0.2955037934       -3.2237707904       -0.2003420531
 H          3.6615830453       -1.1342520240       -1.2200318895
 H          5.0438431007        0.9274494713       -1.1393738652
 H          4.1221933344        2.9761964359       -0.1113029899
 H          1.8274460545        2.9592302045        0.8307551015
  32
  -51.430918370000001        5.9441390245009662E-002 !
 C         -4.4735858625       -0.5219722756       -1.5548012534
 C         -3.4118632858       -0.0028510550       -0.6315533741
 C         -2.7085437693        1.2304564185       -1.1165592021
 C         -3.1311478217       -0.6117226082        0.5144752554
 C         -2.0766448393       -0.1739777837        1.4966505689
 C         -0.6991286719       -0.2053025480        0.8948022225
 C         -0.2356088035       -1.3209357416        0.2743801106
 O         -0.9673027633       -2.4355201239        0.1911054969
 C          1.1023105866       -1.3977127811       -0.3525590629
 O          1.4344291763       -2.4457265983       -0.9024033448
 C          1.9487053612       -0.2095156975       -0.2655649826
 C          3.2230513139       -0.2202621671       -0.8262534905
 C          4.0330547102        0.9007129929       -0.7430102727
 C          3.5739795829        2.0384384683       -0.0992982391
 C          2.3043928797        2.0582500256        0.4601094624
 C          1.4816223237        0.9416712135        0.3850174961
 C          0.1269812858        0.9954676264        0.9838746522
 O         -0.2786919688        2.0207133456        1.5268613016
 H         -5.2806960546        0.2043704717       -1.6433859815
 H         -4.8853619742       -1.4596529276       -1.1929318399
 H         -4.0579383244       -0.6785761947       -2.5490296552
 H         -2.2357456095        1.7752507358       -0.3041714872
 H         -3.4134647708        1.8914975347       -1.6165277803
 H         -1.9359954279        0.9605893897       -1.8380927056
 H         -3.6733025487       -1.5075916499        0.7806418785
 H         -2.0987182495       -0.8449185526        2.3575189522
 H         -2.2659349502        0.8428189831        1.8508817694
 H         -0.4532451584       -3.1077307039       -0.3055393126
 H          3.5577586071       -1.1187356898       -1.3230121134
 H          5.0193801840        0.8836082037       -1.1782912526
 H          4.2009554293        2.9134920956       -0.0324864139
 H          1.9290382366        2.9365880120        0.9634973519
  32
  -51.430918310000003        5.9437616330600025E-002 !
 C         -4.4913090073       -0.5045197352       -1.5485799187
 C         -3.4259283495        0.0087389383       -0.6261039114
 C         -2.7386603464        1.2565515327       -1.0964452211
 C         -3.1301466212       -0.6165242001        0.5073576143
 C         -2.0737351918       -0.1843459209        1.4900242264
 C         -0.6968591772       -0.2112507204        0.8864528731
 C         -0.2279737251       -1.3275657428        0.2712465411
 O         -0.9552688016       -2.4453058218        0.1904422016
 C          1.1134913360       -1.4035443749       -0.3485347467
 O          1.4522288985       -2.4543677231       -0.8889865248
 C          1.9559037091       -0.2125952474       -0.2633413271
 C          3.2343917804       -0.2233734455       -0.8146675946
 C          4.0408685683        0.9002367525       -0.7323588201
 C          3.5737737939        2.0407546209       -0.0993081392
 C          2.3002284198        2.0604070164        0.4510153705
 C          1.4811106494        0.9410685827        0.3771601188
 C          0.1237321840        0.9936358014        0.9698010716
 O         -0.2875931262        2.0203053005        1.5060331406
 H         -4.0821305199       -0.6460128350       -2.5476988667
 H         -5.3033130098        0.2178799984       -1.6222589652
 H         -4.8950070444       -1.4494008296       -1.1962832043
 H         -2.2596338014        1.7894729973       -0.2798978127
 H         -3.4547902590        1.9213058419       -1.5748685464
 H         -1.9735996125        1.0058324093       -1.8326371471
 H         -3.6612192617       -1.5217849717        0.7624387787
 H         -2.0935528325       -0.8615972234        2.3460229032
 H         -2.2631549070        0.8299697975        1.8510681361
 H         -0.4359716268       -3.1182533997       -0.3000834226
 H          3.5736374375       -1.1224664156       -1.3065105978
 H          5.0294741601        0.8844773208       -1.1627182362
 H          4.1976187535        2.9181445538       -0.0335885940
 H          1.9187784332        2.9406780132        0.9464958673
  32
  -51.430914580000000        5.9203474481505029E-002 !
 C         -4.4625390524       -0.5285768946       -1.5574980431
 C         -3.3982136738       -0.0117993777       -0.6361436521
 C         -2.6666945661        1.1979686497       -1.1388577759
 C         -3.1363898029       -0.6038257655        0.5233129397
 C         -2.0793664495       -0.1670931100        1.5031074102
 C         -0.7024498010       -0.2006560740        0.9005863383
 C         -0.2437942461       -1.3145902773        0.2734649254
 O         -0.9795951311       -2.4260881618        0.1840734009
 C          1.0939085335       -1.3934627302       -0.3535741578
 O          1.4235458338       -2.4418011894       -0.9044731231
 C          1.9422991232       -0.2067986649       -0.2668190429
 C          3.2138809909       -0.2174282445       -0.8338154943
 C          4.0254391744        0.9025088758       -0.7515853685
 C          3.5701987672        2.0393485847       -0.1035167662
 C          2.3036246593        2.0587371373        0.4627832760
 C          1.4795641735        0.9430149492        0.3892721246
 C          0.1283970738        0.9962863166        0.9958751665
 O         -0.2705843891        2.0177881442        1.5508914893
 H         -4.9024502512       -1.4452410073       -1.1753892163
 H         -4.0393014408       -0.7238587046       -2.5417189778
 H         -5.2493385485        0.2152777783       -1.6764491739
 H         -2.2099393616        1.7606952803       -0.3295533019
 H         -3.3487129425        1.8523861306       -1.6775386069
 H         -1.8776382587        0.8977230119       -1.8298763848
 H         -3.6985746461       -1.4822467256        0.8041589853
 H         -2.1014719970       -0.8369488961        2.3648422358
 H         -2.2669526196        0.8503086928        1.8570270594
 H         -0.4674241807       -3.0977877102       -0.3156821187
 H          3.5455999998       -1.1153353340       -1.3332445200
 H          5.0090060659        0.8864334792       -1.1931969662
 H          4.1986386604        2.9131636042       -0.0364364321
 H          1.9318549742        2.9355785950        0.9714820569
  32
  -51.430911660000000        5.9020822288997313E-002 !
 C         -4.4752725026       -0.5511608267       -1.5404211463
 C         -3.4057280630       -0.0242731044       -0.6310965004
 C         -2.6781531532        1.1805910807       -1.1512584325
 C         -3.1375410896       -0.6031282982        0.5335232897
 C         -2.0765722020       -0.1545474641        1.5034014697
 C         -0.7017174791       -0.1912579437        0.8962837183
 C         -0.2467196701       -1.3057005927        0.2674575014
 O         -0.9852673157       -2.4154980504        0.1781924922
 C          1.0897620234       -1.3872017681       -0.3620200500
 O          1.4139840721       -2.4335864698       -0.9194966321
 C          1.9440271572       -0.2050847961       -0.2686375864
 C          3.2182429494       -0.2213184724       -0.8296974360
 C          4.0367171679        0.8927798759       -0.7384725094
 C          3.5854131389        2.0299311414       -0.0881685862
 C          2.3158296976        2.0554559282        0.4709566695
 C          1.4852014834        0.9451176237        0.3892728345
 C          0.1316117713        1.0042838848        0.9900743642
 O         -0.2664633535        2.0282005318        1.5411263728
 H         -4.9127483158       -1.4636742409       -1.1457803581
 H         -4.0583359964       -0.7574781908       -2.5251759665
 H         -5.2630480152        0.1911276696       -1.6630590575
 H         -3.3667818142        1.8348579125       -1.6812757615
 H         -1.9017726666        0.8740645781       -1.8537444042
 H         -2.2060058180        1.7450175589       -0.3519056550
 H         -3.6975804335       -1.4788725441        0.8269418476
 H         -2.0934021586       -0.8150536405        2.3725470721
 H         -2.2645275331        0.8660447879        1.8481431323
 H         -0.4765258839       -3.0873927301       -0.3244253722
 H          3.5466431072       -1.1192662801       -1.3312584870
 H          5.0229674817        0.8716312161       -1.1738320482
 H          4.2187831593        2.8996765828       -0.0145666252
 H          1.9466395512        2.9330103420        0.9802791640
  32
  -51.430910830000002        5.8969006957584440E-002 !
 C         -4.4726114119       -0.5619220441       -1.5380870635
 C         -3.4019126725       -0.0310740882       -0.6320982088
 C         -2.6660507759        1.1637486214       -1.1635823035
 C         -3.1390381603       -0.5995296650        0.5389320457
 C         -2.0769719294       -0.1480236163        1.5061183510
 C         -0.7025905460       -0.1868136162        0.8983144846
 C         -0.2504591062       -1.3011499991        0.2669811219
 O         -0.9913894099       -2.4092114476        0.1768220943
 C          1.0844826938       -1.3833332843       -0.3653021795
 O          1.4053028586       -2.4284265939       -0.9274323708
 C          1.9417044808       -0.2035891904       -0.2697537456
 C          3.2149561796       -0.2209606578       -0.8329382369
 C          4.0360170138        0.8911425101       -0.7397012589
 C          3.5883845137        2.0272879419       -0.0850690508
 C          2.3196743582        2.0539576545        0.4762078756
 C          1.4864649240        0.9457761403        0.3922858803
 C          0.1336471859        1.0063639091        0.9945340411
 O         -0.2620149881        2.0304088388        1.5474416339
 H         -4.9154971158       -1.4679043706       -1.1346677385
 H         -4.0543962082       -0.7803758472       -2.5195947025
 H         -5.2563056392        0.1829291306       -1.6699715726
 H         -1.8848476575        0.8449675344       -1.8549584675
 H         -2.1986330614        1.7382670680       -0.3686958743
 H         -3.3479550011        1.8124730842       -1.7089021465
 H         -3.7055545154       -1.4683498400        0.8405669214
 H         -2.0932461090       -0.8055289523        2.3775742868
 H         -2.2643450174        0.8737220157        1.8477957692
 H         -0.4852820981       -3.0809893458       -0.3286534328
 H          3.5403479863       -1.1176767406       -1.3384689171
 H          5.0211879156        0.8692871044       -1.1773359693
 H          4.2238994670        2.8953533054       -0.0100275293
 H          1.9530420389        2.9309819420        0.9884457299
  32
  -51.425015309999999        1.1514111086991781E-004 !
 C         -4.5538724716       -0.9119536603        1.3394228582
 C         -3.4145022594       -0.2289673159        0.6472106578
 C         -2.5399388041        0.6025760168        1.5364048285
 C         -3.2018108792       -0.3822343436       -0.6572155769
 C         -2.0942316325        0.2695114538       -1.4453250436
 C         -0.7150750255        0.0492565792       -0.8733586827
 C         -0.2806398856       -1.1821231506       -0.4991404669
 O         -1.0115339159       -2.2975709380       -0.5957439840
 C          1.0731504786       -1.4243482585        0.0653111460
 O          1.4199119165       -2.5452190488        0.4081516608
 C          1.9494147279       -0.2499435519        0.1786884827
 C          3.2379371100       -0.4052383512        0.6819330893
 C          4.0821207461        0.6870289902        0.7978533617
 C          3.6436986948        1.9439776767        0.4126458091
 C          2.3613672248        2.1087992322       -0.0877764364
 C          1.5056889574        1.0201327756       -0.2105878768
 C          0.1416852336        1.2259654530       -0.7416195560
 O         -0.2522579973        2.3478697824       -1.0543623692
 H         -5.2303239799       -0.1713262264        1.7633960602
 H         -4.1770211685       -1.5223309839        2.1587796784
 H         -5.1142292399       -1.5441434730        0.6563868237
 H         -2.0479754133        1.4006549749        0.9860055751
 H         -1.7682818691       -0.0194664970        1.9926308947
 H         -3.1290461346        1.0425026572        2.3375355043
 H         -3.8967647465       -0.9795619105       -1.2321207325
 H         -2.2494253829        1.3522192482       -1.4930755561
 H         -2.1147630072       -0.1013336549       -2.4734780971
 H         -1.9193745818       -2.1004206776       -0.8965745926
 H          3.5550553052       -1.3943600898        0.9765506239
 H          5.0780760426        0.5559993288        1.1896531797
 H          4.2969535649        2.7972985118        0.5026091509
 H          1.9993095200        3.0796892046       -0.3916613446
  32
  -51.425015219999999        1.1513014563637453E-004 !
 C         -4.5714738675       -0.9056340757        1.3251501243
 C         -3.4223842002       -0.2295359597        0.6423877584
 C         -2.5441192632        0.5875177340        1.5410837423
 C         -3.2050019277       -0.3769603326       -0.6618390150
 C         -2.0916979240        0.2733925906       -1.4428040079
 C         -0.7138107163        0.0501601608       -0.8692345375
 C         -0.2802925134       -1.1811951910       -0.4940304761
 O         -1.0120182660       -2.2964448672       -0.5875269701
 C          1.0757554650       -1.4242986048        0.0651132090
 O          1.4239434826       -2.5458192788        0.4038724811
 C          1.9526970824       -0.2503897420        0.1779214875
 C          3.2420508405       -0.4061576051        0.6789724230
 C          4.0862607609        0.6859893647        0.7949176436
 C          3.6469643927        1.9434486199        0.4124081722
 C          2.3640740620        2.1086512110       -0.0862221727
 C          1.5084808245        1.0200476121       -0.2092184504
 C          0.1440337388        1.2264043217       -0.7386089559
 O         -0.2501223380        2.3487619865       -1.0494624272
 H         -5.1409765867       -1.5195422833        0.6330678615
 H         -5.2368587424       -0.1609427012        1.7594424932
 H         -4.2041626489       -1.5332505968        2.1358330499
 H         -2.0379919425        1.3812415102        0.9974413861
 H         -1.7841368624       -0.0463923516        2.0003992498
 H         -3.1334808684        1.0317808745        2.3396307853
 H         -3.9019448619       -0.9655074581       -1.2433088213
 H         -2.2449241107        1.3565650085       -1.4877460239
 H         -2.1095949882       -0.0931222383       -2.4724802085
 H         -1.9189159301       -2.1011182247       -0.8921177408
 H          3.5602506168       -1.3955737878        0.9711577382
 H          5.0836268984        0.5543852162        1.1832711591
 H          4.3006389512        2.7965979995        0.5014005355
 H          2.0016293280        3.0796997695       -0.3889525128
  32
  -51.425015090000002        1.1511430880971201E-004 !
 C         -4.5897940945       -0.9409518629        1.2864043362
 C         -3.4366318992       -0.2471701369        0.6286690393
 C         -2.5698146750        0.5549773087        1.5515490901
 C         -3.2058150945       -0.3679290610       -0.6761489116
 C         -2.0876980740        0.3020491438       -1.4330140344
 C         -0.7124393548        0.0685059071       -0.8570035988
 C         -0.2812920599       -1.1680323060       -0.4964457685
 O         -1.0134353434       -2.2814956839       -0.6065834795
 C          1.0722496071       -1.4195691690        0.0650768232
 O          1.4132698881       -2.5435356974        0.4035104491
 C          1.9571495573       -0.2514425064        0.1765131922
 C          3.2514188802       -0.4182199687        0.6610906410
 C          4.1042145894        0.6678850605        0.7723559089
 C          3.6682326140        1.9303817656        0.4027852392
 C          2.3797620773        2.1068679707       -0.0774944520
 C          1.5159526934        1.0242271206       -0.1967742501
 C          0.1464519993        1.2418768073       -0.7084603710
 O         -0.2503395576        2.3705596010       -0.9920333850
 H         -5.2631389233       -0.2075470918        1.7274526361
 H         -4.2284073174       -1.5821588181        2.0890141160
 H         -5.1494526720       -1.5440668535        0.5769698301
 H         -3.1680655526        0.9806781392        2.3536753596
 H         -2.0617275798        1.3612164972        1.0284711543
 H         -1.8113595873       -0.0851639933        2.0048302470
 H         -3.8952879148       -0.9467159633       -1.2761807858
 H         -2.2423229024        1.3858287330       -1.4535022637
 H         -2.0975513520       -0.0398496506       -2.4712820757
 H         -1.9182129828       -2.0813038652       -0.9151415882
 H          3.5665933451       -1.4112331536        0.9444144425
 H          5.1058547101        0.5274725079        1.1462861661
 H          4.3288950037        2.7785498897        0.4872128742
 H          2.0195015516        3.0821931571       -0.3689016692
  32
  -51.425014099999999        1.1499377672167762E-004 !
 C         -4.5509668503       -0.8965222490        1.3501676962
 C         -3.4096315015       -0.2234129416        0.6515535475
 C         -2.5260795782        0.6046435961        1.5350371068
 C         -3.2029472741       -0.3821251603       -0.6532026989
 C         -2.0954710176        0.2612276898       -1.4483044270
 C         -0.7156795973        0.0432407569       -0.8773324400
 C         -0.2803254016       -1.1865061110       -0.4987172916
 O         -1.0099601327       -2.3031652840       -0.5914457003
 C          1.0736584185       -1.4255457245        0.0667284917
 O          1.4221702036       -2.5452427906        0.4114833143
 C          1.9475821334       -0.2493439316        0.1797881780
 C          3.2343422498       -0.4007369139        0.6887845843
 C          4.0759214643        0.6935276398        0.8053038780
 C          3.6368613680        1.9484689020        0.4142642001
 C          2.3565145958        2.1092697390       -0.0924593086
 C          1.5032631205        1.0187519498       -0.2150509713
 C          0.1409836475        1.2207781530       -0.7517502687
 O         -0.2523796329        2.3406323940       -1.0723856566
 H         -4.1740361456       -1.5156013473        2.1628777376
 H         -5.1247249058       -1.5186856251        0.6690980346
 H         -5.2146976551       -0.1501223793        1.7839185136
 H         -1.7546942586       -0.0207017283        1.9871122884
 H         -3.1083351898        1.0482415420        2.3391590550
 H         -2.0338229046        1.3997796931        0.9807425020
 H         -3.9032860060       -0.9775292020       -1.2234300233
 H         -2.2491385092        1.3439147786       -1.5041220929
 H         -2.1189032803       -0.1171748186       -2.4735554378
 H         -1.9178706240       -2.1094231992       -0.8936662486
 H          3.5522651181       -1.3884034008        0.9873458646
 H          5.0710296587        0.5654108449        1.2004885140
 H          4.2883992457        2.8031314927        0.5036430157
 H          1.9941201712        3.0784468276       -0.4014919949
  32
  -51.425013419999999        1.1491106012710625E-004 !
 C         -4.5825972341       -0.9385044725        1.2951934436
 C         -3.4327668562       -0.2446666273        0.6315947874
 C         -2.5665364095        0.5636059781        1.5496418310
 C         -3.2046810325       -0.3703098563       -0.6731929432
 C         -2.0888221936        0.2977049433       -1.4352031067
 C         -0.7128661814        0.0658389088       -0.8599989868
 C         -0.2811655678       -1.1701110485       -0.4978006449
 O         -1.0127259974       -2.2839966709       -0.6070860330
 C          1.0720395048       -1.4201661063        0.0650415513
 O          1.4133350224       -2.5434249797        0.4054737865
 C          1.9557973592       -0.2512240495        0.1769280437
 C          3.2489718973       -0.4163292240        0.6649604302
 C          4.1008407935        0.6704362836        0.7762874217
 C          3.6648516401        1.9320277089        0.4035651840
 C          2.3773305138        2.1069271791       -0.0797878857
 C          1.5144853359        1.0235819244       -0.1992014037
 C          0.1456224745        1.2397595515       -0.7132533901
 O         -0.2511590858        2.3676644818       -0.9997213356
 H         -5.1394392124       -1.5500126700        0.5908574618
 H         -5.2592562548       -0.2047558731        1.7305463848
 H         -4.2177643902       -1.5713389434        2.1028579389
 H         -3.1663908473        0.9989308550        2.3453008814
 H         -2.0541382298        1.3634071246        1.0210697507
 H         -1.8118338422       -0.0743338107        2.0121880435
 H         -3.8934282630       -0.9543722208       -1.2690704717
 H         -2.2439753830        1.3813042893       -1.4596477604
 H         -2.1007318472       -0.0484450366       -2.4720666597
 H         -1.9174798064       -2.0843727617       -0.9153935394
 H          3.5643830741       -1.4088993040        0.9497824980
 H          5.1016338579        0.5312933716        1.1529878189
 H          4.3245494575        2.7809015205        0.4887836931
 H          2.0170962116        3.0815387068       -0.3736131591
  32
  -51.425012889999998        1.1484663110167953E-004 !
 C         -4.6088053332       -0.6259037289       -1.3927995666
 C         -3.4433383068       -0.1021715246       -0.6110407236
 C         -2.5867288786        0.8898074959       -1.3383525819
 C         -3.1942677207       -0.5184491402        0.6280011175
 C         -2.0629599872       -0.0396711135        1.5013704438
 C         -0.6978862068       -0.1323596406        0.8646626688
 C         -0.2755010054       -1.2526620595        0.2230704716
 O         -1.0083349884       -2.3627386802        0.0867376797
 C          1.0682153723       -1.3667214963       -0.4031477920
 O          1.4029844701       -2.3845104200       -0.9916306794
 C          1.9518156691       -0.2006219836       -0.2630801984
 C          3.2358149786       -0.2478968089       -0.7986569468
 C          4.0870156730        0.8383072715       -0.6770957726
 C          3.6597875123        1.9819256239       -0.0211731648
 C          2.3816924042        2.0395132268        0.5127091991
 C          1.5194770572        0.9549853097        0.3995441707
 C          0.1607193278        1.0455458286        0.9742432603
 O         -0.2275719659        2.0771861346        1.5189528399
 H         -5.2848571472        0.1899103300       -1.6445141682
 H         -5.1611935677       -1.3745283924       -0.8318844237
 H         -4.2614161302       -1.0667331126       -2.3259672167
 H         -3.1940754092        1.4854797937       -2.0156123793
 H         -1.8343419687        0.3705281074       -1.9339241786
 H         -2.0716998190        1.5571885615       -0.6518321946
 H         -3.8768951105       -1.2191044526        1.0899563488
 H         -2.0571585589       -0.6124380645        2.4324749228
 H         -2.2148529170        1.0097999629        1.7742494518
 H         -1.9081038975       -2.2396239445        0.4457961560
 H          3.5442633281       -1.1492950327       -1.3066272047
 H          5.0804014794        0.7907565860       -1.0939479186
 H          4.3191188057        2.8298060285        0.0758588320
 H          2.0283721052        2.9213691231        1.0260257308
  32
  -51.425012219999999        1.1476523478443196E-004 !
 C         -4.6040035212       -0.6231144813       -1.3985991113
 C         -3.4387425724       -0.1020818074       -0.6147767821
 C         -2.5773708637        0.8857674492       -1.3420159091
 C         -3.1942806723       -0.5168613111        0.6256390773
 C         -2.0645505073       -0.0392678008        1.5018636924
 C         -0.6984802957       -0.1329406421        0.8675008431
 C         -0.2765861960       -1.2530909426        0.2253085608
 O         -1.0104416593       -2.3624996656        0.0884315426
 C          1.0670819327       -1.3673852954       -0.4006459667
 O          1.4019648114       -2.3849169134       -0.9891603799
 C          1.9497219372       -0.2001606848       -0.2633176472
 C          3.2316409258       -0.2454981527       -0.8040147053
 C          4.0820943757        0.8415175504       -0.6846732321
 C          3.6563644093        1.9839402665       -0.0257618266
 C          2.3802979612        2.0396865510        0.5129329666
 C          1.5187063249        0.9544345890        0.4017561489
 C          0.1616366030        1.0434625464        0.9805278768
 O         -0.2245101216        2.0731233802        1.5305857169
 H         -5.2806451804        0.1932626431       -1.6469561690
 H         -5.1559405180       -1.3740312045       -0.8404201240
 H         -4.2566606618       -1.0603429946       -2.3335072531
 H         -2.0589536143        1.5510558411       -0.6558705958
 H         -3.1816987948        1.4843271452       -2.0195039268
 H         -1.8277287156        0.3622941563       -1.9376564232
 H         -3.8802099066       -1.2147153427        1.0868884144
 H         -2.0615181550       -0.6122157327        2.4328511892
 H         -2.2160659006        1.0102071229        1.7748471469
 H         -1.9111344481       -2.2376562639        0.4447116596
 H          3.5397452131       -1.1466391637       -1.3127834681
 H          5.0743547624        0.7949657412       -1.1044413120
 H          4.3154888882        2.8321227031        0.0699297520
 H          2.0276728291        2.9206629890        1.0281912947
  32
  -51.425012060000000        1.1474580539269425E-004 !
 C         -4.5647867985       -0.9115839421        1.3287723811
 C         -3.4179595932       -0.2329123926        0.6446323372
 C         -2.5374282118        0.5817021698        1.5433668220
 C         -3.2046488722       -0.3754010849       -0.6609561512
 C         -2.0931992481        0.2770359868       -1.4428153961
 C         -0.7147477599        0.0526278224       -0.8710863381
 C         -0.2818209968       -1.1793720764       -0.4970761688
 O         -1.0137248443       -2.2943247032       -0.5926591464
 C          1.0729866958       -1.4233746602        0.0644729502
 O          1.4201956005       -2.5453029181        0.4033321247
 C          1.9503967956       -0.2498027904        0.1786943490
 C          3.2387813489       -0.4064407364        0.6819988835
 C          4.0841205209        0.6849281852        0.7979469579
 C          3.6470444077        1.9423424511        0.4127009863
 C          2.3648969165        2.1085257476       -0.0875853006
 C          1.5079820592        1.0208254435       -0.2100149853
 C          0.1438243617        1.2282440427       -0.7398997979
 O         -0.2495724158        2.3509140414       -1.0505775832
 H         -5.2340817815       -0.1682992336        1.7596374818
 H         -4.1953978677       -1.5340842135        2.1423237733
 H         -5.1309185699       -1.5308974109        0.6388884893
 H         -1.7742576271       -0.0526871583        1.9967060742
 H         -3.1243660392        1.0212180399        2.3463097177
 H         -2.0350963656        1.3788559648        1.0011984539
 H         -3.9032202017       -0.9618718582       -1.2424670004
 H         -2.2466324026        1.3602791619       -1.4857357069
 H         -2.1127647819       -0.0877533713       -2.4730790353
 H         -1.9201904286       -2.0983209993       -0.8982252782
 H          3.5552226528       -1.3959653156        0.9759748104
 H          5.0805681290        0.5526591362        1.1884001048
 H          4.3017018602        2.7947303228        0.5010891366
 H          2.0039122836        3.0797544874       -0.3914934923
  32
  -51.424997040000001        1.1293644280713986E-004 !
 C         -4.5916119140       -0.6044324934       -1.4192115131
 C         -3.4376399029       -0.0858139586       -0.6174092982
 C         -2.5911546829        0.9366818858       -1.3135484545
 C         -3.1898567801       -0.5290231517        0.6122823323
 C         -2.0664115234       -0.0573926926        1.4997792927
 C         -0.6979778380       -0.1447243413        0.8686104574
 C         -0.2705234957       -1.2647466567        0.2299692508
 O         -1.0006033120       -2.3765303013        0.0931700404
 C          1.0758869132       -1.3766879770       -0.3908975970
 O          1.4181394783       -2.3971704999       -0.9701053897
 C          1.9508410430       -0.2030400830       -0.2614199286
 C          3.2322450675       -0.2434089058       -0.8037437005
 C          4.0754092900        0.8501330628       -0.6932676310
 C          3.6428910257        1.9938441744       -0.0411286571
 C          2.3675679155        2.0442117183        0.5001932872
 C          1.5132224043        0.9524235371        0.3978013809
 C          0.1574386062        1.0350796453        0.9812423273
 O         -0.2310520227        2.0621432127        1.5343198691
 H         -4.2352505812       -0.9994234515       -2.3695059317
 H         -5.2864190436        0.2052961068       -1.6376541589
 H         -5.1262246987       -1.3875991429       -0.8889744958
 H         -2.0845175866        1.5892585388       -0.6070227000
 H         -3.2041861746        1.5450581598       -1.9742872650
 H         -1.8323497658        0.4434344845       -1.9225736041
 H         -3.8653249076       -1.2498300717        1.0532860271
 H         -2.0668759243       -0.6393967579        2.4250430616
 H         -2.2198394256        0.9894570278        1.7811981046
 H         -1.9039149374       -2.2514534078        0.4423218587
 H          3.5452687753       -1.1455449787       -1.3079020291
 H          5.0667923855        0.8083227551       -1.1155644341
 H          4.2960769541        2.8474442075        0.0468661426
 H          2.0108968308        2.9263445747        1.0110387293
  32
  -51.424995180000003        1.1271437512481319E-004 !
 C         -4.5997030479       -0.6347736158       -1.3995125149
 C         -3.4405193125       -0.1037136381       -0.6134298199
 C         -2.5873342517        0.8933880684       -1.3374355234
 C         -3.1929586831       -0.5193190730        0.6262893141
 C         -2.0644126477       -0.0375779181        1.5014350815
 C         -0.6983124844       -0.1310110454        0.8667454726
 C         -0.2784389264       -1.2499252310        0.2209447458
 O         -1.0165801913       -2.3555377670        0.0767961524
 C          1.0675650406       -1.3673749636       -0.3995496840
 O          1.4041803163       -2.3875674342       -0.9826332797
 C          1.9507072905       -0.2006690292       -0.2622619694
 C          3.2324128630       -0.2468527068       -0.8032059636
 C          4.0831825688        0.8401377616       -0.6855263034
 C          3.6576524940        1.9834601153       -0.0278425275
 C          2.3818231768        2.0397739718        0.5116962829
 C          1.5201257406        0.9544154088        0.4023862371
 C          0.1636254019        1.0437903685        0.9827568866
 O         -0.2208581553        2.0725469318        1.5356727851
 H         -4.2475905668       -1.0610074388       -2.3377153628
 H         -5.2873745115        0.1742247684       -1.6418504344
 H         -5.1408656406       -1.3968359498       -0.8458768616
 H         -1.8345981580        0.3785333289       -1.9364611638
 H         -2.0730001012        1.5593308826       -0.6490757312
 H         -3.1970400911        1.4905116287       -2.0115022111
 H         -3.8735249397       -1.2232981116        1.0861815359
 H         -2.0595848831       -0.6096975824        2.4329550782
 H         -2.2171910039        1.0119698589        1.7733662622
 H         -1.9209650874       -2.2230930712        0.4223510921
 H          3.5397489343       -1.1483970206       -1.3113358609
 H          5.0745045780        0.7935589761       -1.1072162765
 H          4.3159226053        2.8325754379        0.0648717205
 H          2.0301008932        2.9211575304        1.0268846290
  32
  -51.424991419999998        1.1226679675345203E-004 !
 C         -4.6036517984       -0.6343499083       -1.3963038631
 C         -3.4448202635       -0.1028888215       -0.6101935128
 C         -2.5983498599        0.9027512748       -1.3304415981
 C         -3.1917438142       -0.5239605108        0.6264678476
 C         -2.0632763057       -0.0394167269        1.5002863565
 C         -0.6975322482       -0.1315676316        0.8643863304
 C         -0.2747373668       -1.2523697277        0.2239651801
 O         -1.0076566038       -2.3626620411        0.0896038614
 C          1.0679791148       -1.3661684654       -0.4043106859
 O          1.4002041651       -2.3821127720       -0.9973347263
 C          1.9526133882       -0.2012036620       -0.2626285961
 C          3.2370913942       -0.2494892808       -0.7969917687
 C          4.0886992625        0.8363651701       -0.6753168385
 C          3.6613440620        1.9805864146       -0.0205209844
 C          2.3828136456        2.0390544084        0.5122171181
 C          1.5202011055        0.9548339418        0.3991669997
 C          0.1611649765        1.0462704966        0.9734021483
 O         -0.2268503922        2.0782499193        1.5177124867
 H         -5.2938893581        0.1738069819       -1.6343547568
 H         -5.1417334620       -1.4003375890       -0.8448805582
 H         -4.2517873427       -1.0559268027       -2.3368673985
 H         -1.8436251223        0.3951565810       -1.9332472503
 H         -2.0865566424        1.5676862730       -0.6392069550
 H         -3.2124379621        1.5000229874       -2.0004293112
 H         -3.8670033758       -1.2344586537        1.0843139608
 H         -2.0573634211       -0.6094150204        2.4330305104
 H         -2.2176761692        1.0104646538        1.7696487512
 H         -1.9094400048       -2.2348740060        0.4425038479
 H          3.5455244877       -1.1512534261       -1.3044016494
 H          5.0823976352        0.7881423701       -1.0913481931
 H          4.3207116052        2.8284656195        0.0761945403
 H          2.0296444704        2.9212033532        1.0250901906
  32
  -51.425008439999999        1.1430709343034292E-004 !
 C         -4.6178097658       -0.6365852123       -1.3814412626
 C         -3.4484176710       -0.1087974722       -0.6083444442
 C         -2.5920147880        0.8744419577       -1.3473665299
 C         -3.1958038090       -0.5155268954        0.6332105537
 C         -2.0617117469       -0.0312843927        1.4998064085
 C         -0.6975811060       -0.1266798171        0.8615445449
 C         -0.2772276204       -1.2472020010        0.2190288613
 O         -1.0119422998       -2.3559940027        0.0821192732
 C          1.0664781907       -1.3631720775       -0.4068937022
 O          1.3986719164       -2.3800842206       -0.9982312161
 C          1.9533760166       -0.1999892186       -0.2632080953
 C          3.2384121348       -0.2502468049       -0.7960706788
 C          4.0926988102        0.8330297187       -0.6705160331
 C          3.6674031434        1.9769172316       -0.0139209454
 C          2.3881548775        2.0376017298        0.5168056779
 C          1.5230106569        0.9557862033        0.4001869471
 C          0.1634953898        1.0493147496        0.9724872314
 O         -0.2239132140        2.0822634095        1.5153505108
 H         -5.1723833356       -1.3757723879       -0.8103216673
 H         -4.2746665712       -1.0906972346       -2.3098371637
 H         -5.2906028742        0.1790686018       -1.6419234500
 H         -2.0690717543        1.5435438913       -0.6686318906
 H         -3.2009472722        1.4688353013       -2.0243300626
 H         -1.8462992184        0.3477099116       -1.9447765348
 H         -3.8782965641       -1.2109957962        1.1031824895
 H         -2.0532153475       -0.5981913512        2.4345009227
 H         -2.2135435994        1.0196804310        1.7670640778
 H         -1.9118578465       -2.2309139319        0.4405962446
 H          3.5454357177       -1.1518502685       -1.3046639574
 H          5.0869193146        0.7831362936       -1.0851447953
 H          4.3290934264        2.8226668478        0.0859812067
 H          2.0363111917        2.9198733487        1.0304029329
  32
  -51.425007909999998        1.1424300304060218E-004 !
 C         -4.6170229560       -0.6320420147       -1.3833824135
 C         -3.4475872901       -0.1065729914       -0.6086608929
 C         -2.5906842909        0.8787381986       -1.3445594165
 C         -3.1953414432       -0.5164576682        0.6318592795
 C         -2.0616804216       -0.0345026326        1.5002641678
 C         -0.6976580952       -0.1284061553        0.8616651045
 C         -0.2763770759       -1.2489615570        0.2199389874
 O         -1.0102330686       -2.3585570932        0.0835335958
 C          1.0674276347       -1.3642970625       -0.4059032393
 O          1.4005428381       -2.3816251898       -0.9958091051
 C          1.9531550526       -0.2001118788       -0.2633817518
 C          3.2382142764       -0.2497454996       -0.7961730613
 C          4.0916436896        0.8342854375       -0.6712510065
 C          3.6654664145        1.9782486944       -0.0151649507
 C          2.3862659660        2.0382423230        0.5156908383
 C          1.5219058322        0.9557772825        0.3993875539
 C          0.1621788106        1.0486728585        0.9712451772
 O         -0.2257504476        2.0812537321        1.5142586818
 H         -4.2742531021       -1.0800447696       -2.3149587786
 H         -5.2916149634        0.1839537242       -1.6382355975
 H         -5.1697958051       -1.3755001042       -0.8159598891
 H         -3.1984207775        1.4703378104       -2.0249500094
 H         -1.8401930218        0.3540370456       -1.9376951456
 H         -2.0733790012        1.5500312912       -0.6636085193
 H         -3.8777437544       -1.2135783764        1.0994930120
 H         -2.0533321424       -0.6044707524        2.4331383049
 H         -2.2135087129        1.0157739798        1.7704156598
 H         -1.9102675769       -2.2340140428        0.4416176131
 H          3.5460754169       -1.1514959899       -1.3039623645
 H          5.0859016124        0.7846810773       -1.0857138348
 H          4.3264913728        2.8244479679        0.0844790150
 H          2.0337145861        2.9204325715        1.0289694345
  32
  -51.425001170000002        1.1343109410196524E-004 !
 C         -4.5915485588       -0.9464281677        1.2799879609
 C         -3.4377632435       -0.2504838457        0.6258350082
 C         -2.5710566841        0.5474628368        1.5523059054
 C         -3.2060985262       -0.3660118137       -0.6792794728
 C         -2.0868842652        0.3057367963       -1.4329466239
 C         -0.7125899032        0.0718705054       -0.8547437182
 C         -0.2820490410       -1.1654947458       -0.4960401636
 O         -1.0150472428       -2.2782169705       -0.6081454056
 C          1.0713084922       -1.4185437080        0.0652117156
 O          1.4111802818       -2.5427006394        0.4042229159
 C          1.9576947857       -0.2514638649        0.1756106515
 C          3.2536008745       -0.4206524549        0.6548321788
 C          4.1077576044        0.6643021130        0.7655325335
 C          3.6711773567        1.9282155587        0.4015765461
 C          2.3811701116        2.1070965435       -0.0734723328
 C          1.5163348802        1.0253786453       -0.1932721803
 C          0.1461013350        1.2448970387       -0.7020380195
 O         -0.2508387340        2.3745213311       -0.9812682901
 H         -4.2301998727       -1.5937204837        2.0778072990
 H         -5.1529140669       -1.5435730586        0.5670376289
 H         -5.2631402980       -0.2149387820        1.7268283268
 H         -2.0647661142        1.3571795157        1.0329016013
 H         -1.8113425324       -0.0943071002        2.0010094421
 H         -3.1688458268        0.9681109441        2.3573091318
 H         -3.8951889508       -0.9421152907       -1.2821897569
 H         -2.2424220835        1.3893745359       -1.4532254915
 H         -2.0944592676       -0.0361475734       -2.4713610450
 H         -1.9196398049       -2.0763760266       -0.9158527812
 H          3.5689628459       -1.4149047163        0.9335071476
 H          5.1107890988        0.5220689463        1.1348689340
 H          4.3325605697        2.7757284498        0.4869522226
 H          2.0205385570        3.0835950657       -0.3604730277
  32
  -51.424999509999999        1.1323201555415840E-004 !
 C         -4.5916069785       -0.9358048326        1.2885393893
 C         -3.4375089288       -0.2452069686        0.6291310589
 C         -2.5719833437        0.5616102876        1.5491360342
 C         -3.2053537152       -0.3707978889       -0.6749998216
 C         -2.0875760274        0.2984111328       -1.4330428330
 C         -0.7120576269        0.0662712951       -0.8569990592
 C         -0.2805495006       -1.1696944564       -0.4945671829
 O         -1.0140615005       -2.2826826236       -0.6007665727
 C          1.0742450074       -1.4207797198        0.0641235453
 O          1.4166113518       -2.5447186645        0.4015344971
 C          1.9582369233       -0.2518510177        0.1754100898
 C          3.2523819680       -0.4173301109        0.6606733670
 C          4.1035167036        0.6697980207        0.7739268254
 C          3.6660513772        1.9320612903        0.4055684585
 C          2.3779305229        2.1072223180       -0.0760083841
 C          1.5158362304        1.0235737085       -0.1974683809
 C          0.1469655738        1.2399829175       -0.7113572457
 O         -0.2492025091        2.3677790543       -0.9993534685
 H         -4.2318842875       -1.5686369447        2.0982929392
 H         -5.1470742733       -1.5466818598        0.5825792796
 H         -5.2684787718       -0.2000285619        1.7203210814
 H         -3.1706100290        0.9889750789        2.3500635301
 H         -2.0659247700        1.3671093771        1.0228899988
 H         -1.8121847695       -0.0756847246        2.0041626272
 H         -3.8936003696       -0.9523074575       -1.2736803704
 H         -2.2426353233        1.3821241211       -1.4562721374
 H         -2.0975631782       -0.0463020621       -2.4704085015
 H         -1.9208480969       -2.0803275279       -0.9019497871
 H          3.5691382943       -1.4103765206        0.9423533426
 H          5.1049362268        0.5303088133        1.1491041555
 H          4.3249594090        2.7813622088        0.4926813865
 H          2.0166741371        3.0823381435       -0.3669008137
  32
  -51.424998010000003        1.1305242582088978E-004 !
 C         -4.5707188812       -0.5952276785       -1.4378907008
 C         -3.4195682153       -0.0837836443       -0.6274859304
 C         -2.5515876638        0.9203802936       -1.3238710149
 C         -3.1913923518       -0.5203899748        0.6085006612
 C         -2.0709119821       -0.0593726999        1.5054860368
 C         -0.7003948316       -0.1480294145        0.8797581673
 C         -0.2755404434       -1.2655780018        0.2349527662
 O         -1.0099278826       -2.3735697671        0.0900664448
 C          1.0715199046       -1.3786047705       -0.3837777378
 O          1.4164209298       -2.4018336447       -0.9567081551
 C          1.9436027824       -0.2019549061       -0.2613253320
 C          3.2187617838       -0.2360726797       -0.8186162564
 C          4.0580803660        0.8614086039       -0.7175541492
 C          3.6287872851        2.0020281754       -0.0577853652
 C          2.3602813561        2.0456010628        0.4997615812
 C          1.5089236219        0.9507758712        0.4048358976
 C          0.1583765250        1.0284783639        1.0005782974
 O         -0.2247680887        2.0502016058        1.5671766170
 H         -5.1252250263       -1.3616088253       -0.9037387879
 H         -4.2073281982       -1.0104210314       -2.3766891489
 H         -5.2488631633        0.2220481368       -1.6788374550
 H         -3.1484854713        1.5274922582       -2.0002830736
 H         -1.7895170453        0.4116962776       -1.9163612395
 H         -2.0481085456        1.5761420713       -0.6179629076
 H         -3.8814048890       -1.2286444045        1.0474585013
 H         -2.0789543968       -0.6479098777        2.4266288342
 H         -2.2219581519        0.9860044660        1.7937105319
 H         -1.9135538733       -2.2459702995        0.4377813416
 H          3.5295640692       -1.1362365241       -1.3274680680
 H          5.0439348073        0.8247453224       -1.1528916407
 H          4.2788082959        2.8586789736        0.0234849456
 H          2.0058734761        2.9246617474        1.0170468691
  32
  -51.424985270000001        1.1153854811513446E-004 !
 C         -4.5981448777       -0.9874637391        1.2504146033
 C         -3.4426351350       -0.2730201013        0.6196009390
 C         -2.5801553060        0.5002445533        1.5703957505
 C         -3.2072801930       -0.3523185979       -0.6877587037
 C         -2.0870652480        0.3402172626       -1.4204086870
 C         -0.7131699351        0.0934850113       -0.8466095175
 C         -0.2878903170       -1.1490108592       -0.4992612004
 O         -1.0266462910       -2.2570358356       -0.6194016623
 C          1.0652427535       -1.4131247211        0.0574186943
 O          1.4000330408       -2.5414546572        0.3874267383
 C          1.9586220709       -0.2519079675        0.1729958033
 C          3.2550059973       -0.4315998547        0.6470939898
 C          4.1161355798        0.6475940446        0.7605989650
 C          3.6862661394        1.9160269558        0.4043335361
 C          2.3954342549        2.1054847845       -0.0644483662
 C          1.5234905062        1.0297585542       -0.1865295860
 C          0.1520391793        1.2607792903       -0.6870575921
 O         -0.2409208622        2.3950305654       -0.9530683960
 H         -5.1464816038       -1.5788349000        0.5225617353
 H         -5.2806480362       -0.2678242956        1.7000654113
 H         -4.2408799526       -1.6432195612        2.0428774323
 H         -1.8285483268       -0.1554981670        2.0123809273
 H         -3.1831965722        0.9066574063        2.3787864321
 H         -2.0644388634        1.3179571231        1.0732247987
 H         -3.8953594505       -0.9107913226       -1.3082422543
 H         -2.2436605312        1.4239036417       -1.4142255412
 H         -2.0916818158        0.0248878905       -2.4672243135
 H         -1.9324113238       -2.0460598097       -0.9195290413
 H          3.5652858658       -1.4292007031        0.9195808553
 H          5.1193119838        0.4972891551        1.1264298161
 H          4.3533373542        2.7589633002        0.4911921518
 H          2.0396226432        3.0856251344       -0.3451023186
  32
  -51.423977819999998        3.8409002072897454E-005 !
 C         -4.4978451565        0.4648433654        1.8112427975
 C         -3.6962122044        0.5251970379        0.5464557141
 C         -3.8420449806        1.7911341110       -0.2480821664
 C         -2.9331348368       -0.4936546433        0.1671377214
 C         -2.0848807170       -0.5413819570       -1.0778610527
 C         -0.6292099222       -0.5209744148       -0.6827182649
 C          0.0370701574       -1.6423184228       -0.3039636851
 O         -0.4957891627       -2.8705509527       -0.2788764845
 C          1.4618273698       -1.6297324661        0.1216605241
 O          2.0369601378       -2.6663183434        0.4203389212
 C          2.1183287253       -0.3158188572        0.1575397028
 C          3.4449063314       -0.2262016221        0.5700130192
 C          4.0846577726        1.0016191138        0.6124808223
 C          3.4025660084        2.1501312584        0.2429931179
 C          2.0818535763        2.0705929072       -0.1703399312
 C          1.4290306295        0.8441213080       -0.2174550066
 C          0.0211524031        0.7884370080       -0.6641373179
 O         -0.5711773792        1.8075228730       -1.0101816527
 H         -4.1874807835        1.2628970414        2.4843045495
 H         -4.3729036097       -0.4879952124        2.3185873895
 H         -5.5537980197        0.6101724645        1.5888227286
 H         -2.8675437878        2.1909571883       -0.5243370077
 H         -4.3728479122        2.5424764689        0.3295204664
 H         -4.4029365446        1.6057672840       -1.1635878379
 H         -2.8629222774       -1.3651797961        0.8055601825
 H         -2.2800834316        0.3310573836       -1.6989037395
 H         -2.3203765414       -1.4356664367       -1.6599999430
 H         -1.4166167159       -2.8771723793       -0.5922332332
 H          3.9543015291       -1.1354322925        0.8519024265
 H          5.1126183676        1.0601386281        0.9325503365
 H          3.8969617423        3.1081216210        0.2744746926
 H          1.5331824550        2.9530475515       -0.4642019693
  32
  -51.423977219999998        3.8384623288255457E-005 !
 C         -4.5003245684        0.3796966288       -1.8058280090
 C         -3.6920294788        0.5004393929       -0.5495381433
 C         -3.8275401017        1.8065764498        0.1791512570
 C         -2.9335732941       -0.5026507758       -0.1214042301
 C         -2.0786972618       -0.4921599197        1.1199999474
 C         -0.6256008722       -0.4900070525        0.7151853479
 C          0.0376345670       -1.6271757457        0.3808758051
 O         -0.4955970189       -2.8552266706        0.4136000079
 C          1.4593934238       -1.6340069516       -0.0546892138
 O          2.0346088178       -2.6834377158       -0.3042103804
 C          2.1139124151       -0.3226875933       -0.1589880455
 C          3.4353044352       -0.2510006192       -0.5911982614
 C          4.0733184479        0.9740266719       -0.6965160224
 C          3.3951306236        2.1375846034       -0.3693793115
 C          2.0795280734        2.0760449528        0.0629916257
 C          1.4281397293        0.8527128601        0.1718167442
 C          0.0251287193        0.8169923599        0.6352072461
 O         -0.5637885640        1.8503695673        0.9426003277
 H         -4.1875520043        1.1388557111       -2.5217517538
 H         -5.5541769848        0.5444378120       -1.5863409817
 H         -4.3845179998       -0.5998089009       -2.2625551428
 H         -2.8503147554        2.2093618029        0.4408220120
 H         -4.3951518309        1.6738323407        1.0994209574
 H         -4.3468949677        2.5334460408       -0.4386860020
 H         -2.8718606596       -1.4059315926       -0.7147948984
 H         -2.3099945571       -1.3580854720        1.7452232977
 H         -2.2703106876        0.4085423791        1.7003867465
 H         -1.4140165812       -2.8479728488        0.7340826185
 H          3.9420949200       -1.1715310201       -0.8392096696
 H          5.0970223293        1.0185285319       -1.0324321327
 H          3.8880911641        3.0933714722       -0.4497162191
 H          1.5335090918        2.9703275976        0.3239045979
  32
  -51.423976619999998        3.8360259977203141E-005 !
 C         -4.5094243521        0.4404757146        1.8054580755
 C         -3.7018854848        0.5162319002        0.5451238701
 C         -3.8459567936        1.7908499981       -0.2357865658
 C         -2.9357314412       -0.4974027792        0.1579305352
 C         -2.0821368136       -0.5309970161       -1.0838958295
 C         -0.6277133597       -0.5130988027       -0.6843271359
 C          0.0353641862       -1.6364857474       -0.3063054317
 O         -0.5004858528       -2.8635445708       -0.2849216697
 C          1.4595859776       -1.6280293599        0.1209914342
 O          2.0320218754       -2.6664179048        0.4183653672
 C          2.1196046003       -0.3159106365        0.1581188179
 C          3.4470634258       -0.2305495075        0.5685595038
 C          4.0906452418        0.9953999109        0.6113931219
 C          3.4112790821        2.1461916022        0.2443878742
 C          2.0894847649        2.0709140044       -0.1666864892
 C          1.4329797701        0.8464698870       -0.2145129979
 C          0.0244985551        0.7953594224       -0.6598426804
 O         -0.5675554120        1.8172178095       -0.9981775966
 H         -4.2004816593        1.2284428829        2.4911461660
 H         -4.3880995677       -0.5196784189        2.2997406312
 H         -5.5642117859        0.5907507437        1.5805258375
 H         -4.4044078592        1.6156908684       -1.1545788570
 H         -2.8708808587        2.1936345918       -0.5053183500
 H         -4.3780408121        2.5357017102        0.3489297353
 H         -2.8679531210       -1.3757983611        0.7869540036
 H         -2.2758212223        0.3477990946       -1.6963506848
 H         -2.3136299308       -1.4195092951       -1.6767321662
 H         -1.4202716290       -2.8671338880       -0.6015431019
 H          3.9540651029       -1.1413127849        0.8498301765
 H          5.1191942672        1.0503361420        0.9305016078
 H          3.9081760630        3.1028291142        0.2763538608
 H          1.5430619820        2.9554226684       -0.4583072112
  32
  -51.423972350000000        3.8187320457642693E-005 !
 C         -4.5007599963        0.4395808791        1.8108453114
 C         -3.6938966569        0.5170601442        0.5501468706
 C         -3.8316201411        1.7970342186       -0.2233812410
 C         -2.9354147387       -0.4998117963        0.1563327076
 C         -2.0839847969       -0.5332913712       -1.0869518087
 C         -0.6292586043       -0.5148891044       -0.6881293607
 C          0.0339355064       -1.6375766553       -0.3081043065
 O         -0.5013565259       -2.8648418955       -0.2854731329
 C          1.4574784832       -1.6279744080        0.1216851093
 O          2.0304510107       -2.6660976464        0.4192499290
 C          2.1162578966       -0.3151518777        0.1601039402
 C          3.4415776498       -0.2276965257        0.5771584406
 C          4.0841302460        0.9987067048        0.6195514259
 C          3.4062261189        2.1480958046        0.2451306056
 C          2.0865077320        2.0708949624       -0.1720150881
 C          1.4307724025        0.8459189574       -0.2185980820
 C          0.0238235075        0.7932312889       -0.6681424099
 O         -0.5662566097        1.8137143639       -1.0137509896
 H         -5.5548861908        0.5979226811        1.5880110593
 H         -4.1862311333        1.2216966295        2.5007556651
 H         -4.3850379885       -0.5241474087        2.2996521870
 H         -4.4076596399        1.6331070340       -1.1332939383
 H         -2.8557351512        2.1874154387       -0.5076859302
 H         -4.3436266763        2.5470326728        0.3727679498
 H         -2.8722475649       -1.3814676550        0.7811231386
 H         -2.2789792451        0.3452555188       -1.6992710056
 H         -2.3161463700       -1.4218978646       -1.6793201543
 H         -1.4201427133       -2.8698974604       -0.6049445055
 H          3.9477982017       -1.1373715419        0.8634500742
 H          5.1109345491        1.0554544157        0.9441548640
 H          3.9026562161        3.1049564350        0.2769428756
 H          1.5405767890        2.9540807001       -0.4683276359
  32
  -51.423971989999998        3.8172775762978642E-005 !
 C         -4.5065525899        0.4148017265        1.8054554114
 C         -3.6914181809        0.5082102775        0.5511696719
 C         -3.8092406988        1.8050892888       -0.1967906441
 C         -2.9422437845       -0.5094021154        0.1414386895
 C         -2.0831057355       -0.5270259343       -1.0969550196
 C         -0.6299788533       -0.5091604853       -0.6916938533
 C          0.0304672747       -1.6328576510       -0.3096564052
 O         -0.5075036427       -2.8589988314       -0.2875998539
 C          1.4533303021       -1.6257973522        0.1220136191
 O          2.0238490245       -2.6646744288        0.4215409466
 C          2.1149897164       -0.3144614227        0.1594361425
 C          3.4406811763       -0.2298270200        0.5758402850
 C          4.0848844935        0.9956412102        0.6205926597
 C          3.4083000145        2.1467311407        0.2489734074
 C          2.0886611337        2.0721103295       -0.1687166282
 C          1.4312914371        0.8480995306       -0.2178447148
 C          0.0247490603        0.7979905107       -0.6690789966
 O         -0.5633014038        1.8198535726       -1.0145227339
 H         -5.5561470602        0.5986766407        1.5809125049
 H         -4.1810862488        1.1738321639        2.5159746027
 H         -4.4118227100       -0.5626362570        2.2712529144
 H         -2.8274513625        2.1902809996       -0.4669299602
 H         -4.3169098378        2.5485694403        0.4108985926
 H         -4.3806141467        1.6665163852       -1.1138360801
 H         -2.8935646494       -1.4035983935        0.7493511801
 H         -2.2767679364        0.3574358740       -1.7012350882
 H         -2.3085419082       -1.4099900219       -1.7002796858
 H         -1.4260707988       -2.8618294445       -0.6076025846
 H          3.9458303479       -1.1408110940        0.8598426394
 H          5.1121381373        1.0502305881        0.9440776679
 H          3.9058792249        3.1029299958        0.2827648281
 H          1.5441405386        2.9564393030       -0.4642742857
  32
  -51.423971590000001        3.8156621488433035E-005 !
 C         -4.4953250008        0.3773242657       -1.8067330088
 C         -3.6862690354        0.5000206095       -0.5510725503
 C         -3.8125945625        1.8113539926        0.1696075770
 C         -2.9348564250       -0.5056634809       -0.1171226315
 C         -2.0792062808       -0.4939305235        1.1239521073
 C         -0.6263945445       -0.4908429834        0.7179998866
 C          0.0360767545       -1.6274897204        0.3801831235
 O         -0.4985314920       -2.8550763390        0.4092934672
 C          1.4577438016       -1.6338232749       -0.0544743461
 O          2.0332167862       -2.6824865962       -0.3065482881
 C          2.1123654599       -0.3222804445       -0.1569746334
 C          3.4337093545       -0.2502171553       -0.5890758751
 C          4.0700050398        0.9753591228       -0.6982495631
 C          3.3900537667        2.1390439261       -0.3754489417
 C          2.0753066888        2.0769338984        0.0591814669
 C          1.4258282295        0.8529760201        0.1724710800
 C          0.0246132695        0.8161289715        0.6405445767
 O         -0.5628819444        1.8485635339        0.9538729256
 H         -4.3868322523       -0.6058448193       -2.2570798979
 H         -4.1767152337        1.1294860547       -2.5274580702
 H         -5.5479042560        0.5513099774       -1.5885522718
 H         -2.8328845471        2.2076799167        0.4312601339
 H         -4.3834199969        1.6885767776        1.0891989570
 H         -4.3244647939        2.5387766361       -0.4537935160
 H         -2.8803436428       -1.4127349789       -0.7050032125
 H         -2.3089484403       -1.3599915166        1.7495316519
 H         -2.2712671414        0.4066448337        1.7044602624
 H         -1.4173946954       -2.8474300643        0.7285339279
 H          3.9415688096       -1.1709492712       -0.8341385766
 H          5.0933040123        1.0203701204       -1.0355465742
 H          3.8810898519        3.0954420676       -0.4607755902
 H          1.5285556738        2.9711692715        0.3187904083
  32
  -51.423971520000002        3.8153795193362362E-005 !
 C         -4.5214365077        0.3601134636       -1.7941203395
 C         -3.7014798665        0.4923677815       -0.5466143627
 C         -3.8310300316        1.8051740694        0.1712644451
 C         -2.9388907199       -0.5062809453       -0.1158533326
 C         -2.0763554235       -0.4846315119        1.1201159428
 C         -0.6243901921       -0.4836710786        0.7106440993
 C          0.0367787586       -1.6221998756        0.3766190814
 O         -0.4986416805       -2.8491555611        0.4112297314
 C          1.4579288520       -1.6317595069       -0.0609744332
 O          2.0291792899       -2.6819436461       -0.3164994328
 C          2.1167244178       -0.3220907415       -0.1597356068
 C          3.4400144221       -0.2535259204       -0.5866618609
 C          4.0829034803        0.9695306736       -0.6846915777
 C          3.4071378072        2.1343530279       -0.3571211235
 C          2.0892713364        2.0760669883        0.0688225509
 C          1.4333199063        0.8546453832        0.1715081030
 C          0.0284041581        0.8221377357        0.6298854767
 O         -0.5599065612        1.8570310626        0.9335844357
 H         -4.4108796404       -0.6236677923       -2.2421144819
 H         -4.2148796711        1.1116490479       -2.5205254709
 H         -5.5728433572        0.5279752044       -1.5665156357
 H         -4.3520237549        2.5275475381       -0.4505069398
 H         -2.8521129662        2.2087588295        0.4246883575
 H         -4.3946555550        1.6812272219        1.0952624470
 H         -2.8807866753       -1.4140418610       -0.7022773313
 H         -2.3030790360       -1.3461843506        1.7532202745
 H         -2.2666835651        0.4200735342        1.6947607552
 H         -1.4155013332       -2.8396664899        0.7361616913
 H          3.9449191584       -1.1750824817       -0.8345545056
 H          5.1086189010        1.0115390432       -1.0147729991
 H          3.9040510540        3.0885886045       -0.4315244157
 H          1.5453395738        2.9715138405        0.3301837999
  32
  -51.423971309999999        3.8145317563878915E-005 !
 C         -4.5095945134        0.3510114294       -1.7987010454
 C         -3.6911369423        0.4903377784       -0.5509813327
 C         -3.8112569464        1.8119528946        0.1517438385
 C         -2.9391949948       -0.5109203247       -0.1075192634
 C         -2.0773689158       -0.4848930103        1.1288904423
 C         -0.6257234247       -0.4837491996        0.7181386862
 C          0.0337466645       -1.6216042161        0.3786760274
 O         -0.5019698459       -2.8485322001        0.4107946258
 C          1.4532592205       -1.6304401373       -0.0640886997
 O          2.0231626023       -2.6801011847       -0.3242257991
 C          2.1124918690       -0.3210079550       -0.1612642239
 C          3.4339862738       -0.2518281978       -0.5935600635
 C          4.0763638807        0.9713618077       -0.6926518819
 C          3.4023578287        2.1355645973       -0.3592405493
 C          2.0866867505        2.0765021463        0.0731929010
 C          1.4309456297        0.8549848680        0.1759923833
 C          0.0279488197        0.8217741703        0.6396420300
 O         -0.5582638450        1.8560975195        0.9493570962
 H         -5.5600253433        0.5312462709       -1.5753557917
 H         -4.4071202754       -0.6392158225       -2.2347186770
 H         -4.1945155931        1.0910684524       -2.5332360569
 H         -4.3133435533        2.5351139549       -0.4844831509
 H         -2.8305758867        2.2044174061        0.4151118027
 H         -4.3894579397        1.7056364569        1.0689255292
 H         -2.8902053440       -1.4258792807       -0.6837344651
 H         -2.3031627504       -1.3450906130        1.7639243490
 H         -2.2682790275        0.4210147762        1.7013717580
 H         -1.4173742171       -2.8407514249        0.7396863095
 H          3.9374506838       -1.1728982407       -0.8462736186
 H          5.1001829381        1.0139784016       -1.0284749517
 H          3.8988660181        3.0900073429       -0.4342735337
 H          1.5443593612        2.9713552643        0.3396105258
  32
  -51.423971240000000        3.8142492106100107E-005 !
 C         -4.4851615753        0.4668742601        1.8185005490
 C         -3.6854461863        0.5268052443        0.5524967766
 C         -3.8209830554        1.7989812691       -0.2340310974
 C         -2.9333447198       -0.4973586065        0.1652065857
 C         -2.0873407955       -0.5456180813       -1.0813442664
 C         -0.6312114237       -0.5241858482       -0.6876479183
 C          0.0351600107       -1.6441464916       -0.3048812746
 O         -0.4973791897       -2.8725133718       -0.2762424561
 C          1.4594588042       -1.6298169944        0.1221328660
 O          2.0356964303       -2.6658046108        0.4209285620
 C          2.1141949351       -0.3150005567        0.1589691099
 C          3.4381355496       -0.2222823079        0.5791518407
 C          4.0757052554        1.0067113483        0.6224838313
 C          3.3946293300        2.1531307412        0.2448716917
 C          2.0766654162        2.0705204560       -0.1764737376
 C          1.4256461845        0.8430598907       -0.2232071009
 C          0.0198285741        0.7849125911       -0.6757507852
 O         -0.5706984105        1.8021226256       -1.0303015923
 H         -4.3693827327       -0.4910683635        2.3186782578
 H         -5.5400705932        0.6256518188        1.5994013066
 H         -4.1642786250        1.2567477490        2.4966957378
 H         -2.8436895249        2.1900213573       -0.5125670761
 H         -4.3411281568        2.5527006451        0.3502555062
 H         -4.3874560960        1.6249168726       -1.1481336525
 H         -2.8708391932       -1.3732325344        0.7981173741
 H         -2.2834395067        0.3266526925       -1.7023012929
 H         -2.3228975830       -1.4402522780       -1.6629908936
 H         -1.4183468222       -2.8797965772       -0.5890397531
 H          3.9471565474       -1.1297495183        0.8674445463
 H          5.1012147082        1.0677339724        0.9501965766
 H          3.8872403780        3.1119534772        0.2770934547
 H          1.5285348254        2.9510606152       -0.4770222312
  32
  -51.423970879999999        3.8127964485550585E-005 !
 C         -4.5034365925        0.4180479292        1.8094673188
 C         -3.6939799011        0.5088754340        0.5514104657
 C         -3.8262019066        1.7986081465       -0.2063666557
 C         -2.9375257953       -0.5051839426        0.1465605950
 C         -2.0827716435       -0.5250532909       -1.0948213539
 C         -0.6288520284       -0.5086310063       -0.6925153624
 C          0.0325289737       -1.6332472622       -0.3148141661
 O         -0.5038394021       -2.8601842828       -0.2998206686
 C          1.4533360198       -1.6259341488        0.1235623819
 O          2.0210362402       -2.6642822231        0.4301252943
 C          2.1155927820       -0.3148918233        0.1605626399
 C          3.4411745644       -0.2306120156        0.5773691013
 C          4.0867704514        0.9942253281        0.6190222770
 C          3.4116510409        2.1451429012        0.2442202803
 C          2.0915621371        2.0711340236       -0.1722024497
 C          1.4328051575        0.8477628496       -0.2181331960
 C          0.0249239660        0.7988547466       -0.6654057387
 O         -0.5647269635        1.8218470231       -1.0044181279
 H         -4.3936168526       -0.5526346230        2.2854310618
 H         -5.5560186813        0.5849020735        1.5866477035
 H         -4.1861987462        1.1890564178        2.5104076973
 H         -4.4000033046        1.6477809611       -1.1199202786
 H         -2.8486690538        2.1902043206       -0.4829057643
 H         -4.3380710465        2.5422351820        0.3975788552
 H         -2.8788634906       -1.3947935713        0.7604276736
 H         -2.2771654473        0.3591923963       -1.6991192251
 H         -2.3119408523       -1.4080714811       -1.6965937021
 H         -1.4225553652       -2.8612601977       -0.6191776944
 H          3.9454546084       -1.1415414364        0.8631460268
 H          5.1140941643        1.0484513518        0.9424595826
 H          3.9108497755        3.1006367046        0.2744170385
 H          1.5479110546        2.9552791843       -0.4698687341
  32
  -51.423970709999999        3.8121106143852229E-005 !
 C         -4.5148410130        0.3449486716       -1.7944265711
 C         -3.6938357735        0.4875840361       -0.5486454556
 C         -3.8124084870        1.8111633767        0.1509542264
 C         -2.9407085703       -0.5124652378       -0.1044226636
 C         -2.0762378412       -0.4829477846        1.1300904323
 C         -0.6253794089       -0.4816146551        0.7164832889
 C          0.0334219635       -1.6198738541        0.3772374303
 O         -0.5032951557       -2.8462925804        0.4106452023
 C          1.4525290823       -1.6297793130       -0.0669083605
 O          2.0202716492       -2.6795578904       -0.3319749869
 C          2.1136599828       -0.3209564343       -0.1604709157
 C          3.4367049195       -0.2530596935       -0.5882878201
 C          4.0805641433        0.9696090842       -0.6853856923
 C          3.4061383703        2.1346318055       -0.3555233607
 C          2.0890228716        2.0768057336        0.0727770546
 C          1.4321571930        0.8557608561        0.1745955103
 C          0.0283539616        0.8237153042        0.6360119031
 O         -0.5580518923        1.8586403694        0.9431797125
 H         -5.5651099854        0.5244378588       -1.5696106900
 H         -4.4121127998       -0.6457708820       -2.2290428821
 H         -4.2019089658        1.0839084383       -2.5309527973
 H         -2.8310157098        2.2051030311        0.4099148776
 H         -4.3871194627        1.7066909542        1.0705684889
 H         -4.3175665849        2.5323577739       -0.4853678059
 H         -2.8923409762       -1.4285192476       -0.6790248790
 H         -2.2992949962       -1.3419847185        1.7679047603
 H         -2.2665158678        0.4241900243        1.7009492135
 H         -1.4196160060       -2.8364959827        0.7369020266
 H          3.9402600743       -1.1748074637       -0.8385564686
 H          5.1057173616        1.0112458381       -1.0173085089
 H          3.9035512120        3.0886611303       -0.4296751820
 H          1.5463435961        2.9722820435        0.3364223368
  32
  -51.423970349999998        3.8106586668736571E-005 !
 C         -4.5035055907        0.4622938487        1.8080108466
 C         -3.7002834604        0.5241140490        0.5442218643
 C         -3.8507362191        1.7881323225       -0.2528019187
 C         -2.9328962907       -0.4923562235        0.1670769619
 C         -2.0834843298       -0.5388934681       -1.0771919228
 C         -0.6281746834       -0.5192163246       -0.6810463751
 C          0.0373926615       -1.6411723785       -0.3028104747
 O         -0.4962112240       -2.8692306805       -0.2785579142
 C          1.4625204039       -1.6297587563        0.1215336373
 O          2.0383679654       -2.6672742087        0.4155651783
 C          2.1196669928       -0.3161085154        0.1582006849
 C          3.4468946493       -0.2276100713        0.5691342368
 C          4.0877982936        0.9996338836        0.6104675322
 C          3.4064513543        2.1486790941        0.2410625151
 C          2.0850025086        2.0703733787       -0.1700979836
 C          1.4308951661        0.8444418137       -0.2158964831
 C          0.0221254293        0.7902312914       -0.6599879395
 O         -0.5716612254        1.8104581974       -1.0000081950
 H         -5.5598675644        0.6027807802        1.5838896141
 H         -4.1975217488        1.2626088310        2.4806520536
 H         -4.3750365356       -0.4894765879        2.3167204028
 H         -4.3849220362        2.5382474411        0.3232021418
 H         -4.4098744519        1.5991730004       -1.1684186426
 H         -2.8776583930        2.1914894613       -0.5287102888
 H         -2.8602867559       -1.3626555874        0.8066076311
 H         -2.2779036170        0.3345905717       -1.6969039310
 H         -2.3178842292       -1.4323076577       -1.6614609601
 H         -1.4168911810       -2.8749597705       -0.5926055545
 H          3.9556853527       -1.1372044619        0.8509629160
 H          5.1162198835        1.0575887005        0.9295525311
 H          3.9019836019        3.1060408350        0.2717703016
 H          1.5364586018        2.9531442688       -0.4629048637
  32
  -51.423970169999997        3.8099329005113893E-005 !
 C         -4.5225468207        0.3819090102       -1.7931528701
 C         -3.7067140947        0.5004924908       -0.5415884464
 C         -3.8479399976        1.8001047750        0.1976643729
 C         -2.9363661630       -0.4985914869       -0.1258574797
 C         -2.0761754196       -0.4897352352        1.1117948615
 C         -0.6236890064       -0.4882115539        0.7050945540
 C          0.0403869039       -1.6262455258        0.3755039036
 O         -0.4927555729       -2.8542403936        0.4091273933
 C          1.4639640276       -1.6342745750       -0.0543721340
 O          2.0390499547       -2.6842163430       -0.3020999704
 C          2.1204817103       -0.3237001232       -0.1549399382
 C          3.4460122332       -0.2541733382       -0.5746753520
 C          4.0853761458        0.9702148447       -0.6790431141
 C          3.4039790335        2.1353263574       -0.3643474686
 C          2.0845658448        2.0758377163        0.0566430425
 C          1.4320833772        0.8530805327        0.1654846581
 C          0.0260372766        0.8189837015        0.6199976604
 O         -0.5656095702        1.8535611093        0.9177889654
 H         -4.4030950764       -0.5938539026       -2.2564831846
 H         -4.2195416006        1.1473837217       -2.5064225953
 H         -5.5759991493        0.5382081556       -1.5658276863
 H         -4.3995231865        1.6544126887        1.1256830622
 H         -4.3856347873        2.5244010366       -0.4075240188
 H         -2.8717348739        2.2131708417        0.4468278310
 H         -2.8699742453       -1.3969826817       -0.7259702781
 H         -2.3060351379       -1.3561438592        1.7370059061
 H         -2.2655769240        0.4105721553        1.6935853419
 H         -1.4121609129       -2.8468865220        0.7267835045
 H          3.9548993717       -1.1759432095       -0.8134947287
 H          5.1123961690        1.0130976122       -1.0050004110
 H          3.8977772561        3.0907398701       -0.4444064032
 H          1.5366510579        2.9713709107        0.3089233419
  32
  -51.423969710000001        3.8080787922110350E-005 !
 C         -4.4956569874        0.4369194729        1.8120123841
 C         -3.6861940193        0.5167922987        0.5532633646
 C         -3.8088997145        1.8049307866       -0.2086249703
 C         -2.9386150322       -0.5050216342        0.1513124800
 C         -2.0854158908       -0.5364782687       -1.0909866137
 C         -0.6308737458       -0.5163312780       -0.6910793203
 C          0.0317926336       -1.6379243474       -0.3067304468
 O         -0.5045517359       -2.8646499670       -0.2788833767
 C          1.4557582664       -1.6275979855        0.1213596014
 O          2.0298453056       -2.6653899843        0.4178008249
 C          2.1136799082       -0.3144241097        0.1595716147
 C          3.4378644205       -0.2256416851        0.5799291398
 C          4.0786086676        1.0016412738        0.6249692851
 C          3.4003509623        2.1503159185        0.2489606607
 C          2.0823172588        2.0715224570       -0.1730402518
 C          1.4281362154        0.8457926871       -0.2215250479
 C          0.0226204210        0.7914882219       -0.6754405830
 O         -0.5655350811        1.8106046158       -1.0286495421
 H         -4.1731390996        1.2088574895        2.5095878355
 H         -4.3922856812       -0.5325779908        2.2920340320
 H         -5.5472725824        0.6098058566        1.5884779479
 H         -4.3100674876        2.5560946722        0.3951655548
 H         -4.3889905372        1.6564412125       -1.1187086190
 H         -2.8289852432        2.1854835068       -0.4919691841
 H         -2.8864614694       -1.3925342585        0.7686709886
 H         -2.2806860299        0.3420497213       -1.7033221838
 H         -2.3149327211       -1.4252019467       -1.6842221254
 H         -1.4242302813       -2.8696603052       -0.5956720763
 H          3.9443966823       -1.1348580127        0.8671695915
 H          5.1044279466        1.0595498058        0.9523439789
 H          3.8954683252        3.1077988533        0.2823022079
 H          1.5365011400        2.9538979835       -0.4720849684
  32
  -51.423968019999997        3.8012747030746955E-005 !
 C         -4.4939056860        0.4388931818        1.8145707095
 C         -3.6912750448        0.5160611439        0.5512854626
 C         -3.8299406793        1.7962220879       -0.2215263181
 C         -2.9341767612       -0.5009426833        0.1548717814
 C         -2.0841889876       -0.5326939709       -1.0895286967
 C         -0.6293213545       -0.5146675102       -0.6911186068
 C          0.0341508125       -1.6376943996       -0.3123305706
 O         -0.5006609514       -2.8653405956       -0.2936677221
 C          1.4555546581       -1.6275073083        0.1239474603
 O          2.0260142792       -2.6648610773        0.4290668537
 C          2.1152450945       -0.3150826531        0.1600661779
 C          3.4403647421       -0.2276249977        0.5777307755
 C          4.0832622449        0.9986743226        0.6190094453
 C          3.4062882378        2.1476833360        0.2419554780
 C          2.0867051408        2.0705206689       -0.1755986658
 C          1.4304080054        0.8458399998       -0.2201858435
 C          0.0226182635        0.7937337476       -0.6672042851
 O         -0.5688050495        1.8151626023       -1.0078498613
 H         -4.3744877868       -0.5236773961        2.3048424537
 H         -5.5490039891        0.5943327019        1.5941213261
 H         -4.1791381896        1.2232528254        2.5019469052
 H         -4.3505854596        2.5428142723        0.3712975668
 H         -4.3973551338        1.6307261542       -1.1365991395
 H         -2.8535709161        2.1917306229       -0.4971738067
 H         -2.8703039704       -1.3835896455        0.7783599995
 H         -2.2794356479        0.3467887405       -1.7004547148
 H         -2.3169050666       -1.4204520743       -1.6828352606
 H         -1.4201467825       -2.8681285862       -0.6108839343
 H          3.9461398035       -1.1370388835        0.8653707330
 H          5.1097596234        1.0555663236        0.9445764584
 H          3.9032967941        3.1042323788        0.2719419090
 H          1.5411824066        2.9532485057       -0.4744774467
  32
  -51.423964630000000        3.7876628937104566E-005 !
 C         -4.5129319255        0.3797101051       -1.7983020613
 C         -3.6988840342        0.5004037083       -0.5457250265
 C         -3.8330013462        1.8056094122        0.1847988371
 C         -2.9363682608       -0.5014438628       -0.1223603425
 C         -2.0775497230       -0.4912205466        1.1162619266
 C         -0.6248749573       -0.4893727667        0.7100004464
 C          0.0388255783       -1.6268248834        0.3775128727
 O         -0.4943537407       -2.8548480247        0.4096196000
 C          1.4617698133       -1.6341800581       -0.0544223697
 O          2.0367524910       -2.6838266491       -0.3038497546
 C          2.1173091405       -0.3231652738       -0.1561026372
 C          3.4411321641       -0.2523887715       -0.5809510724
 C          4.0791618920        0.9725538361       -0.6869633040
 C          3.3982582574        2.1369769947       -0.3686243257
 C          2.0806837402        2.0762683234        0.0577665066
 C          1.4295670869        0.8529249678        0.1682544790
 C          0.0255414232        0.8176790167        0.6286386718
 O         -0.5639295406        1.8513022668        0.9339894308
 H         -5.5658681535        0.5422249196       -1.5734533140
 H         -4.3977355478       -0.5990537295       -2.2563371314
 H         -4.2052525639        1.1399690233       -2.5151384492
 H         -4.3966219223        1.6713137033        1.1072583459
 H         -4.3554545004        2.5326670133       -0.4304396117
 H         -2.8553112514        2.2092029488        0.4425829826
 H         -2.8759540717       -1.4041135912       -0.7166989404
 H         -2.3076121024       -1.3574549989        1.7415024356
 H         -2.2680703892        0.4091400156        1.6976119939
 H         -1.4133302099       -2.8478544719        0.7284789810
 H          3.9496772828       -1.1735704806       -0.8227162298
 H          5.1048066709        1.0164606113       -1.0170463758
 H          3.8909528685        3.0927959405       -0.4503669811
 H          1.5331168456        2.9711941667        0.3131219875
  32
  -51.423962950000004        3.7809352921863788E-005 !
 C         -4.5122568556        0.3894540897       -1.8004541515
 C         -3.7031085092        0.5037502796       -0.5440059060
 C         -3.8520102046        1.7987116578        0.2019183350
 C         -2.9319450305       -0.4953092648       -0.1297607471
 C         -2.0772325451       -0.4910732278        1.1116406304
 C         -0.6238236646       -0.4905063275        0.7086235680
 C          0.0417368277       -1.6284939224        0.3818590670
 O         -0.4879932366       -2.8577874285        0.4209927450
 C          1.4634680420       -1.6348885455       -0.0542386291
 O          2.0376142394       -2.6840453629       -0.3075015800
 C          2.1188797109       -0.3238457683       -0.1560843980
 C          3.4433310887       -0.2533488269       -0.5790113416
 C          4.0819463822        0.9713969290       -0.6834676602
 C          3.4008473632        2.1358464136       -0.3656925774
 C          2.0822394897        2.0754325878        0.0576177691
 C          1.4304790070        0.8523277065        0.1664091568
 C          0.0246150765        0.8172964086        0.6213325322
 O         -0.5680917988        1.8516796774        0.9175890947
 H         -4.2113109602        1.1625585527       -2.5065747751
 H         -5.5678130508        0.5364936426       -1.5767385810
 H         -4.3839750597       -0.5821331728       -2.2704238029
 H         -4.3888038446        2.5246293801       -0.4020032355
 H         -2.8782677971        2.2132443102        0.4579647458
 H         -4.4078179822        1.6464289358        1.1263396565
 H         -2.8605692660       -1.3909233315       -0.7334788403
 H         -2.3118641587       -1.3585361427        1.7332436162
 H         -2.2675858691        0.4079808277        1.6948717678
 H         -1.4046571440       -2.8536247637        0.7462592545
 H          3.9519650585       -1.1747019713       -0.8201482216
 H          5.1084578827        1.0150457763       -1.0110706887
 H          3.8942507116        3.0915880771       -0.4454623465
 H          1.5343105599        2.9706403689        0.3110888003
  32
  -51.423960240000000        3.7701082055899399E-005 !
 C         -4.5278177161        0.3641852216       -1.7878647199
 C         -3.7071744858        0.4937909727       -0.5405082447
 C         -3.8419757398        1.8018006238        0.1849729969
 C         -2.9394563330       -0.5037687687       -0.1163954832
 C         -2.0745403000       -0.4851942273        1.1178789848
 C         -0.6233739391       -0.4836681956        0.7060322059
 C          0.0378729737       -1.6221740562        0.3725244574
 O         -0.4981230796       -2.8488756646        0.4049526795
 C          1.4605197284       -1.6322292393       -0.0603124839
 O          2.0325355542       -2.6827063819       -0.3126542573
 C          2.1200957163       -0.3228728885       -0.1565145193
 C          3.4462447749       -0.2552268000       -0.5748901732
 C          4.0888024592        0.9678086288       -0.6740242748
 C          3.4099067076        2.1336232982       -0.3561532250
 C          2.0898263608        2.0761258770        0.0626788472
 C          1.4342872972        0.8545320744        0.1669950855
 C          0.0277235875        0.8226518000        0.6201735585
 O         -0.5632052273        1.8582963873        0.9158375020
 H         -4.2268063352        1.1226459050       -2.5093583415
 H         -5.5802350484        0.5236795621       -1.5579602494
 H         -4.4110161721       -0.6160224703       -2.2424398522
 H         -4.3989654446        1.6692966157        1.1117654871
 H         -4.3719866878        2.5234581471       -0.4299676651
 H         -2.8642305353        2.2107795111        0.4343594994
 H         -2.8793587051       -1.4086270463       -0.7072860184
 H         -2.2993777156       -1.3483983382        1.7495472958
 H         -2.2635017942        0.4181666526        1.6950336009
 H         -1.4174772629       -2.8391601773        0.7226276902
 H          3.9529711565       -1.1775926997       -0.8159808018
 H          5.1164271709        1.0095505478       -0.9981893944
 H          3.9062505421        3.0879581604       -0.4330891566
 H          1.5433266044        2.9721466126        0.3164616096
  32
  -51.423793730000000        3.1610481945772655E-005 !
 C         -5.0754086342       -0.6140305889       -1.4895984775
 C         -4.2138340976       -0.1925524861       -0.3401259574
 C         -4.9169787574       -0.0008741610        0.9729892044
 C         -2.9065616936        0.0070538739       -0.4810769068
 C         -1.9952935660        0.4678080936        0.6255021674
 C         -0.5452681515        0.1620696305        0.3621525511
 C         -0.1251641710       -1.0957807032        0.0671554478
 O         -0.9364272417       -2.1563049851       -0.0131668156
 C          1.3001161033       -1.4320550335       -0.1907950717
 O          1.6389769849       -2.5765573868       -0.4536244810
 C          2.2543426759       -0.3172358357       -0.1082131407
 C          3.6066378964       -0.5585821724       -0.3342878283
 C          4.5255279532        0.4755001719       -0.2624099290
 C          4.0992395777        1.7601261739        0.0354118828
 C          2.7546905006        2.0103578610        0.2619090371
 C          1.8230430692        0.9809267949        0.1933022192
 C          0.3958770179        1.2769359290        0.4409828376
 O          0.0220693516        2.4176854914        0.7052322491
 H         -5.8343511223        0.1432227626       -1.6812748015
 H         -5.5888700358       -1.5444797455       -1.2516764478
 H         -4.4890689548       -0.7558438998       -2.3934470064
 H         -4.5445626966       -0.6986566829        1.7222000376
 H         -5.9853339217       -0.1592940568        0.8616453316
 H         -4.7517838053        1.0070773781        1.3499324013
 H         -2.4449876157       -0.1057555254       -1.4532676393
 H         -2.2985037977        0.0174546986        1.5758379061
 H         -2.0795518868        1.5531085363        0.7474602013
 H         -1.8708032554       -1.8994010749        0.0988367081
 H          3.9134124657       -1.5678660947       -0.5644572700
 H          5.5707899358        0.2777934596       -0.4389123421
 H          4.8109979695        2.5683696366        0.0916396928
 H          2.4011795897        3.0036537068        0.4951194293
  32
  -51.423787480000001        3.1402108959601462E-005 !
 C         -5.0626110231       -0.6207905187       -1.4976567591
 C         -4.2087698127       -0.2001585430       -0.3420758586
 C         -4.9170461581       -0.0313816697        0.9713902700
 C         -2.9041661788        0.0180786158       -0.4802792300
 C         -1.9957485521        0.4775753290        0.6286250559
 C         -0.5460204521        0.1684965880        0.3668159552
 C         -0.1295609069       -1.0893360495        0.0665064882
 O         -0.9441151347       -2.1468526524       -0.0210777284
 C          1.2949794833       -1.4291873429       -0.1910475750
 O          1.6309985346       -2.5746788462       -0.4531987075
 C          2.2517295612       -0.3165190496       -0.1088389099
 C          3.6028300757       -0.5601614617       -0.3395775512
 C          4.5239436329        0.4721126446       -0.2695683301
 C          4.1012426754        1.7570564187        0.0319378104
 C          2.7579363170        2.0094507687        0.2638941503
 C          1.8240463638        0.9819389204        0.1968518320
 C          0.3983193254        1.2802899150        0.4501237636
 O          0.0279134774        2.4205492479        0.7210248925
 H         -4.4744089764       -0.7341798572       -2.4043974745
 H         -5.8386935727        0.1223651057       -1.6753455593
 H         -5.5544886141       -1.5667619484       -1.2754961894
 H         -4.5229656357       -0.7162297773        1.7211853178
 H         -5.9801700546       -0.2223549058        0.8604680163
 H         -4.7828742012        0.9813832569        1.3477124372
 H         -2.4419872051       -0.0781874862       -1.4541639935
 H         -2.3013236794        0.0275094536        1.5782606877
 H         -2.0778209344        1.5630217420        0.7501657471
 H         -1.8788505381       -1.8867458483        0.0835043527
 H          3.9066662559       -1.5691778840       -0.5745881347
 H          5.5680996556        0.2725805688       -0.4505136550
 H          4.8149727120        2.5635358357        0.0883823100
 H          2.4075061999        3.0027205180        0.5016711517
  32
  -51.423781650000002        3.1208977039404314E-005 !
 C         -5.0700648026       -0.6521456582       -1.4785539965
 C         -4.2114500555       -0.2080272318       -0.3354208785
 C         -4.9133068039       -0.0173622533        0.9785439616
 C         -2.9076509195        0.0097711790       -0.4832508316
 C         -1.9958833443        0.4886229198        0.6148598125
 C         -0.5464709356        0.1754954494        0.3557626528
 C         -0.1313129029       -1.0840127452        0.0605574243
 O         -0.9468861819       -2.1410944726       -0.0225115279
 C          1.2928952216       -1.4261289963       -0.1957313307
 O          1.6267028787       -2.5712012233       -0.4622655546
 C          2.2521489883       -0.3160723211       -0.1087594743
 C          3.6035729707       -0.5631641090       -0.3337938302
 C          4.5272906761        0.4662719098       -0.2573059784
 C          4.1067172867        1.7517956459        0.0447239375
 C          2.7630315817        2.0077096130        0.2700660296
 C          1.8264963651        0.9830960905        0.1963366961
 C          0.4001071050        1.2853409768        0.4411646248
 O          0.0312940704        2.4268692008        0.7090713031
 H         -5.8421115240        0.0909554438       -1.6740045214
 H         -5.5675662071       -1.5887087319       -1.2305494091
 H         -4.4846591570       -0.7926623492       -2.3833697667
 H         -4.7448182803        0.9888721121        1.3581107319
 H         -4.5432134525       -0.7185157509        1.7255501354
 H         -5.9821425781       -0.1719445516        0.8669884889
 H         -2.4496635453       -0.1023469886       -1.4573074374
 H         -2.2984697119        0.0543419458        1.5727458431
 H         -2.0779890187        1.5759693694        0.7189300781
 H         -1.8810148442       -1.8785211065        0.0808325323
 H          3.9055118454       -1.5728288215       -0.5686090727
 H          5.5717696063        0.2641751233       -0.4333744991
 H          4.8223478238        2.5562428792        0.1055089467
 H          2.4144192293        3.0014520791        0.5084983264
  32
  -51.423773169999997        3.0930176304407241E-005 !
 C         -5.0728787676       -0.5904425287       -1.5043982427
 C         -4.2153006606       -0.1723336020       -0.3507159734
 C         -4.9274712043        0.0485359165        0.9525822334
 C         -2.9025632803       -0.0032756509       -0.4780615442
 C         -1.9955142349        0.4452134852        0.6371872222
 C         -0.5444397860        0.1460217067        0.3730224528
 C         -0.1190649502       -1.1092186889        0.0745399951
 O         -0.9252850959       -2.1734017684       -0.0093618196
 C          1.3078425864       -1.4389019049       -0.1833252176
 O          1.6528648623       -2.5833117233       -0.4383959019
 C          2.2558224426       -0.3181777381       -0.1096266934
 C          3.6076407797       -0.5514913360       -0.3464133640
 C          4.5208948341        0.4880702788       -0.2819305363
 C          4.0894765402        1.7698032769        0.0206497890
 C          2.7454100910        2.0119601315        0.2580978208
 C          1.8192094815        0.9772662495        0.1957634691
 C          0.3920466669        1.2648676108        0.4534207298
 O          0.0142094756        2.4022428535        0.7262421593
 H         -5.6057297585       -1.5085516880       -1.2608751570
 H         -4.4799816030       -0.7543774754       -2.4001269807
 H         -5.8155977706        0.1782108713       -1.7133438066
 H         -6.0001714676       -0.0613110915        0.8262950742
 H         -4.7215320224        1.0467954141        1.3348431474
 H         -4.5967727992       -0.6672190596        1.7042493464
 H         -2.4323016187       -0.1353827617       -1.4436489980
 H         -2.3006451955       -0.0194554930        1.5803320191
 H         -2.0830684358        1.5285390170        0.7738120685
 H         -1.8609160242       -1.9226466759        0.1037970737
 H          3.9182534335       -1.5587230681       -0.5803431557
 H          5.5658102761        0.2966033281       -0.4670328073
 H          4.7969387918        2.5820775695        0.0722628352
 H          2.3883257827        3.0029991852        0.4955295498
  32
  -51.423773009999998        3.0924939923258627E-005 !
 C         -5.0825058917       -1.0116572717        1.2374909452
 C         -4.2204800263       -0.2519693061        0.2778863351
 C         -4.9328588502        0.4142593139       -0.8635426074
 C         -2.9022822558       -0.1709479290        0.4316030940
 C         -1.9933281026        0.6030159876       -0.4866339481
 C         -0.5419272787        0.2410062286       -0.3233988544
 C         -0.1085393100       -1.0408582981       -0.4448019136
 O         -0.9056201446       -2.0798195388       -0.7181502109
 C          1.3194247609       -1.4284398400       -0.2950311887
 O          1.6720635756       -2.5916795059       -0.4226738227
 C          2.2588453172       -0.3395158334        0.0080085359
 C          3.6108949356       -0.6297085052        0.1686897983
 C          4.5159005991        0.3792923012        0.4544135121
 C          4.0760217343        1.6873611856        0.5816065516
 C          2.7316600596        1.9862046845        0.4231847029
 C          1.8137035828        0.9823735133        0.1366373323
 C          0.3863101480        1.3304020223       -0.0280077275
 O          0.0015825057        2.4929420790        0.0785164878
 H         -5.6367965179       -1.7863289766        0.7092842465
 H         -5.8068448462       -0.3410985286        1.6978286424
 H         -4.4894005639       -1.4751656024        2.0213530674
 H         -6.0077907405        0.2949481481       -0.7668680241
 H         -4.6255546597       -0.0121988909       -1.8177781684
 H         -4.7002626132        1.4776000275       -0.8886052203
 H         -2.4283082060       -0.6337816055        1.2870941625
 H         -2.0851642956        1.6751131230       -0.2814682384
 H         -2.2958144650        0.4536178496       -1.5282458712
 H         -1.8421115949       -1.8129602116       -0.7618462213
 H          3.9285935289       -1.6562554734        0.0639285635
 H          5.5612130022        0.1438370090        0.5759853532
 H          4.7770960262        2.4760815884        0.8039668971
 H          2.3680071149        2.9985461584        0.5177208867
  32
  -51.423769759999999        3.0818767609633065E-005 !
 C         -5.0794223275       -1.0167836906        1.2395296034
 C         -4.2196196334       -0.2530808591        0.2812593316
 C         -4.9350071233        0.4239668252       -0.8518120164
 C         -2.9006346412       -0.1756012226        0.4304409431
 C         -1.9937045877        0.6028580463       -0.4859092515
 C         -0.5419897752        0.2410402378       -0.3258224695
 C         -0.1084550227       -1.0407294869       -0.4477095734
 O         -0.9052002458       -2.0797008273       -0.7222855460
 C          1.3192275559       -1.4284837872       -0.2960010425
 O          1.6716577591       -2.5919232481       -0.4224047877
 C          2.2582119861       -0.3398305290        0.0093101463
 C          3.6094149577       -0.6307638242        0.1757894224
 C          4.5143057606        0.3782661925        0.4619877872
 C          4.0752163810        1.6871786272        0.5833070772
 C          2.7316165282        1.9866454987        0.4197114680
 C          1.8136995191        0.9827100303        0.1333896069
 C          0.3866627581        1.3309783938       -0.0340873776
 O          0.0025393844        2.4941781297        0.0672086407
 H         -4.4849199961       -1.4807441033        2.0220151949
 H         -5.6318136733       -1.7915568254        0.7096011480
 H         -5.8053434221       -0.3490517931        1.7013736504
 H         -6.0082214144        0.2813668141       -0.7683317799
 H         -4.6097296478        0.0268845140       -1.8127054728
 H         -4.7233592653        1.4921396330       -0.8499032340
 H         -2.4243741555       -0.6446326445        1.2813143448
 H         -2.0858392394        1.6741641713       -0.2767171790
 H         -2.2976389219        0.4577875996       -1.5277762926
 H         -1.8414983502       -1.8125032218       -0.7681467412
 H          3.9265468546       -1.6578818218        0.0751482704
 H          5.5586549633        0.1420234291        0.5896082829
 H          4.7762117036        2.4759415814        0.8056413974
 H          2.3684678742        2.9995499387        0.5100258362
  32
  -51.423767380000001        3.0741248086322965E-005 !
 C         -5.0729744578       -0.6009502511       -1.4997778404
 C         -4.2151696631       -0.1796599078       -0.3475183984
 C         -4.9253106661        0.0338488291        0.9580405672
 C         -2.9041585212        0.0002233217       -0.4791724934
 C         -1.9956885344        0.4548913898        0.6319678157
 C         -0.5450216156        0.1516350177        0.3696363901
 C         -0.1216735331       -1.1042352699        0.0708029139
 O         -0.9287057159       -2.1675775022       -0.0149432057
 C          1.3051050434       -1.4364932039       -0.1846406020
 O          1.6485180137       -2.5816555894       -0.4381655048
 C          2.2551513869       -0.3177642494       -0.1094129856
 C          3.6066914937       -0.5535492634       -0.3456212306
 C          4.5219736084        0.4841220865       -0.2793411711
 C          4.0929567087        1.7663406088        0.0248873152
 C          2.7491101810        2.0109681846        0.2615188096
 C          1.8208335718        0.9782169768        0.1968696731
 C          0.3938988717        1.2684292916        0.4521275584
 O          0.0179196023        2.4068139257        0.7229322648
 H         -5.5915192084       -1.5282821238       -1.2605883072
 H         -4.4826934250       -0.7496723141       -2.3999871238
 H         -5.8275764700        0.1587156891       -1.6982968663
 H         -4.7517511282        1.0445101944        1.3240601759
 H         -4.5643409166       -0.6580794024        1.7179120039
 H         -5.9943624422       -0.1151874076        0.8412696362
 H         -2.4371897808       -0.1235788968       -1.4473099088
 H         -2.3009336297       -0.0017721183        1.5787222467
 H         -2.0813482003        1.5392260137        0.7611043221
 H         -1.8643292655       -1.9171298293        0.0980722413
 H          3.9154760149       -1.5612150722       -0.5801764765
 H          5.5666208575        0.2908192768       -0.4642157202
 H          4.8022137504        2.5770030899        0.0786900444
 H          2.3937760434        3.0023913275        0.4998842253
  32
  -51.423767290000001        3.0738320505008746E-005 !
 C         -5.0628465661       -1.1930866563        1.0980755711
 C         -4.2014781637       -0.3525095540        0.2075242044
 C         -4.8864088694        0.2480924880       -0.9866313173
 C         -2.9147417416       -0.1453922701        0.4749240809
 C         -1.9975636974        0.7224615427       -0.3431505440
 C         -0.5503480319        0.3211632931       -0.2329231540
 C         -0.1472086313       -0.9597548055       -0.4391525258
 O         -0.9735093526       -1.9644955212       -0.7508592421
 C          1.2753914518       -1.3835025787       -0.3495254278
 O          1.5984070907       -2.5465060021       -0.5416165127
 C          2.2468074504       -0.3296575097       -0.0241332101
 C          3.5976903746       -0.6524925266        0.0705417956
 C          4.5326302849        0.3231728025        0.3751164747
 C          4.1239170603        1.6301344575        0.5883354776
 C          2.7808155322        1.9611204359        0.4972530072
 C          1.8331091883        0.9911083647        0.1916317723
 C          0.4076510053        1.3729082946        0.1008898890
 O          0.0485130929        2.5318377786        0.2977784487
 H         -4.4967190985       -1.5942943368        1.9344134491
 H         -5.4916002108       -2.0197630249        0.5334002219
 H         -5.8864146961       -0.5964566457        1.4877671434
 H         -4.4059949182       -0.0592034800       -1.9143339826
 H         -4.8466946686        1.3351133964       -0.9389690221
 H         -5.9273745765       -0.0583915925       -1.0238097169
 H         -2.4767107101       -0.5688790956        1.3695162246
 H         -2.0701927543        1.7613069704       -0.0034287827
 H         -2.3004090938        0.7098460472       -1.3942605418
 H         -1.9060900557       -1.6755551940       -0.7330365973
 H          3.8906804222       -1.6775684933       -0.1000703033
 H          5.5766346976        0.0625145157        0.4454310521
 H          4.8484251777        2.3931001473        0.8250329346
 H          2.4411949024        2.9732448792        0.6593000871
  32
  -51.423764140000003        3.0636030615529761E-005 !
 C         -5.0794556139       -0.5744168429       -1.5039403529
 C         -4.2178790596       -0.1663245246       -0.3497252675
 C         -4.9267807347        0.0533558088        0.9556182795
 C         -2.9044207800       -0.0028597084       -0.4781941696
 C         -1.9951900388        0.4387787685        0.6377358490
 C         -0.5443063454        0.1405745199        0.3717220530
 C         -0.1165416297       -1.1141080822        0.0742882631
 O         -0.9197265410       -2.1805413546       -0.0099084819
 C          1.3116776745       -1.4416281384       -0.1800486633
 O          1.6593658267       -2.5861303529       -0.4310372451
 C          2.2575297326       -0.3190335352       -0.1075435409
 C          3.6102902228       -0.5503722880       -0.3413460797
 C          4.5212154507        0.4914015291       -0.2796980683
 C          4.0866171064        1.7735270115        0.0169252059
 C          2.7416849625        2.0136422955        0.2519834136
 C          1.8178412933        0.9765810299        0.1927229228
 C          0.3901128478        1.2615483453        0.4495989503
 O          0.0099443745        2.3989071792        0.7192164067
 H         -4.4900702340       -0.7280104600       -2.4038280862
 H         -5.8244879394        0.1950832148       -1.7015783966
 H         -5.6097184787       -1.4960634636       -1.2676071567
 H         -5.9980881206       -0.0774231227        0.8369203227
 H         -4.7372404023        1.0594232151        1.3260369963
 H         -4.5781199486       -0.6474748310        1.7132577671
 H         -2.4355311290       -0.1328699285       -1.4446210340
 H         -2.3001204979       -0.0293371629        1.5790784644
 H         -2.0819849844        1.5215061682        0.7794228443
 H         -1.8562080104       -1.9346643250        0.1045033120
 H          3.9234655502       -1.5577884656       -0.5711637932
 H          5.5666868893        0.3015487930       -0.4632503616
 H          4.7921705535        2.5876397813        0.0656753111
 H          2.3819890326        3.0048507072        0.4845590637
  32
  -51.423763569999998        3.0617557420141737E-005 !
 C         -5.0763928674       -1.1423194076        1.1314970333
 C         -4.2126936439       -0.3179093981        0.2284559511
 C         -4.9073795910        0.3242531270       -0.9378280024
 C         -2.9115766791       -0.1616775905        0.4559901430
 C         -1.9954610789        0.6815186550       -0.3899121391
 C         -0.5466223476        0.2940090002       -0.2600044111
 C         -0.1327972605       -0.9874794402       -0.4396820013
 O         -0.9498948956       -2.0029448182       -0.7409155637
 C          1.2917082517       -1.3995430531       -0.3300987182
 O          1.6248479797       -2.5629787997       -0.5008961218
 C          2.2525921739       -0.3334695686       -0.0132200916
 C          3.6045837492       -0.6453391730        0.1004688812
 C          4.5297830469        0.3419115589        0.3973807178
 C          4.1102366814        1.6496459729        0.5829875197
 C          2.7660139043        1.9698535377        0.4722156032
 C          1.8279412400        0.9880934922        0.1746365184
 C          0.4009766866        1.3584942537        0.0628102383
 O          0.0323489717        2.5185622998        0.2337444764
 H         -5.5653784039       -1.9324584727        0.5632968382
 H         -5.8551016728       -0.5199902323        1.5704960815
 H         -4.4964561861       -1.5918777911        1.9331028399
 H         -4.5222480199       -0.0580468719       -1.8824337524
 H         -4.7500315763        1.4013580593       -0.9286031580
 H         -5.9748645424        0.1288886517       -0.9015186433
 H         -2.4598761942       -0.6103106354        1.3311971690
 H         -2.0764893122        1.7322082491       -0.0910137183
 H         -2.2953735487        0.6261319977       -1.4409303757
 H         -1.8840643811       -1.7202113232       -0.7387645700
 H          3.9059947758       -1.6713405961       -0.0486279975
 H          5.5745994034        0.0896716984        0.4834231347
 H          4.8272055991        2.4216255685        0.8132840496
 H          2.4178412409        2.9821357753        0.6137963509
  32
  -51.423763200000003        3.0605572010501549E-005 !
 C         -5.0842256797       -1.1541363080        1.1094587967
 C         -4.2158005395       -0.3194921650        0.2202556406
 C         -4.9060249245        0.3423850689       -0.9377565836
 C         -2.9147655177       -0.1695998824        0.4535358857
 C         -1.9951456882        0.6837085697       -0.3779767123
 C         -0.5466753545        0.2939515462       -0.2509645363
 C         -0.1326984340       -0.9865668595       -0.4375594396
 O         -0.9488597858       -2.0012244698       -0.7442272396
 C          1.2919290744       -1.3989224182       -0.3301673814
 O          1.6243363787       -2.5627939742       -0.4997760627
 C          2.2537474787       -0.3332403834       -0.0149443716
 C          3.6064160950       -0.6447200358        0.0915577220
 C          4.5324926770        0.3424006028        0.3861398162
 C          4.1129738730        1.6493088117        0.5777579664
 C          2.7679628068        1.9689160439        0.4750929064
 C          1.8291211762        0.9874376355        0.1790551250
 C          0.4014400838        1.3572057647        0.0750417811
 O          0.0326381328        2.5161200064        0.2535890968
 H         -5.5684546239       -1.9390636821        0.5300932620
 H         -5.8666101272       -0.5374040319        1.5496298381
 H         -4.5091851313       -1.6112593832        1.9103078136
 H         -4.7766488505        1.4230598256       -0.8892337430
 H         -5.9692457742        0.1189574419       -0.9284397869
 H         -4.4928613576        0.0028951058       -1.8873727889
 H         -2.4666004708       -0.6312119243        1.3238698427
 H         -2.0761918494        1.7304809206       -0.0656491753
 H         -2.2923780875        0.6434665179       -1.4305124900
 H         -1.8833484995       -1.7193838915       -0.7421096749
 H          3.9077332278       -1.6701029356       -0.0621680084
 H          5.5780247747        0.0907622317        0.4654997665
 H          4.8305325890        2.4211189344        0.8068040005
 H          2.4200593724        2.9807485988        0.6203800650
  32
  -51.423762189999998        3.0572878959219351E-005 !
 C         -5.0759128389       -1.0481955320        1.2190238942
 C         -4.2169935308       -0.2712086532        0.2703774638
 C         -4.9299110493        0.3877483919       -0.8749847497
 C         -2.9020312798       -0.1680713218        0.4387542412
 C         -1.9943261563        0.6246425970       -0.4641897486
 C         -0.5431734833        0.2565745659       -0.3117824125
 C         -0.1154213828       -1.0259843283       -0.4454251492
 O         -0.9187869547       -2.0590458942       -0.7226700779
 C          1.3117817251       -1.4205042298       -0.3075136729
 O          1.6597382674       -2.5832686279       -0.4512632917
 C          2.2563012237       -0.3383679509        0.0040955585
 C          3.6070182940       -0.6361423810        0.1620302522
 C          4.5173679702        0.3666348598        0.4527022472
 C          4.0844405173        1.6763859164        0.5860634338
 C          2.7412988850        1.9826606286        0.4311667544
 C          1.8177266812        0.9848752279        0.1415936440
 C          0.3909741911        1.3400930829       -0.0135505843
 O          0.0113503902        2.5031708859        0.1043626889
 H         -5.8140171350       -0.3900551839        1.6752349555
 H         -4.4837636565       -1.5062460659        2.0065349666
 H         -5.6145706524       -1.8281994978        0.6827336647
 H         -6.0021857206        0.2338418133       -0.7988866562
 H         -4.5930541470       -0.0152436555       -1.8294822028
 H         -4.7308457282        1.4581925782       -0.8812548753
 H         -2.4300490838       -0.6247414893        1.2988182953
 H         -2.0835682776        1.6922198773       -0.2354762818
 H         -2.2984387058        0.4983317869       -1.5082849504
 H         -1.8546858257       -1.7870348496       -0.7519525387
 H          3.9193470678       -1.6638735982        0.0526136583
 H          5.5613052322        0.1249280611        0.5739236370
 H          4.7900174047        2.4606280895        0.8100536090
 H          2.3828978295        2.9963849817        0.5308462842
  32
  -51.423757070000001        3.0407684310647002E-005 !
 C         -5.0617041082       -0.6900942299       -1.4665240210
 C         -4.2030906204       -0.2422284375       -0.3246014726
 C         -4.8952267582       -0.1115219028        1.0018811780
 C         -2.9121985611        0.0343395762       -0.4890865580
 C         -1.9969651207        0.5312196035        0.5967625683
 C         -0.5492889580        0.2028554419        0.3440825767
 C         -0.1443749962       -1.0599344406        0.0485873897
 O         -0.9681663745       -2.1101628152       -0.0402884701
 C          1.2778445939       -1.4144822452       -0.2022867456
 O          1.6021042473       -2.5622693273       -0.4690456333
 C          2.2471932638       -0.3137353290       -0.1085198680
 C          3.5969670205       -0.5723468222       -0.3304205867
 C          4.5298716687        0.4482138569       -0.2470361828
 C          4.1202956218        1.7363553803        0.0589991575
 C          2.7782536894        2.0038599431        0.2805940605
 C          1.8325018304        0.9882896001        0.1994633363
 C          0.4077713765        1.3031799411        0.4379016170
 O          0.0482818941        2.4476184611        0.7061093389
 H         -5.4986056547       -1.6634536768       -1.2478100213
 H         -4.4910061430       -0.7598942222       -2.3886144111
 H         -5.8794333645        0.0138631541       -1.6141613404
 H         -4.4188960287       -0.7321732842        1.7594032069
 H         -5.9364857526       -0.4091898063        0.9209714526
 H         -4.8554742350        0.9200445515        1.3490877321
 H         -2.4688434504       -0.0360292951       -1.4739397258
 H         -2.3011278508        0.1240798526        1.5655344974
 H         -2.0709986412        1.6212854671        0.6742132768
 H         -1.9010104819       -1.8395051578        0.0593300328
 H          3.8906826527       -1.5839804573       -0.5670810336
 H          5.5729909392        0.2370232116       -0.4204773847
 H          4.8432351913        2.5338370759        0.1257702534
 H          2.4378777663        3.0002906587        0.5199377361
  32
  -51.423757049999999        3.0407040772310104E-005 !
 C         -4.9877426624       -0.6648424406       -1.5246267356
 C         -4.1738919043       -0.2831777867       -0.3238965643
 C         -4.9156735951       -0.3761042700        0.9745871776
 C         -2.9134711955        0.1225061525       -0.4541107758
 C         -1.9918174052        0.5841101828        0.6413352679
 C         -0.5502749081        0.2392149941        0.3689334016
 C         -0.1666793742       -1.0237646055        0.0471983517
 O         -1.0062891960       -2.0591831896       -0.0584866841
 C          1.2499276767       -1.3955952731       -0.2126725826
 O          1.5576064929       -2.5459720443       -0.4876631826
 C          2.2344583563       -0.3087969070       -0.1153203599
 C          3.5785480188       -0.5825219790       -0.3532908374
 C          4.5252487352        0.4253184249       -0.2702815262
 C          4.1353524274        1.7156185473        0.0519982499
 C          2.7993771779        1.9978247400        0.2914532778
 C          1.8399599514        0.9950361873        0.2109863751
 C          0.4223593745        1.3249652507        0.4703540268
 O          0.0810250918        2.4698772664        0.7594417015
 H         -5.3148889850       -1.7005512503       -1.4454063408
 H         -4.4197102166       -0.5470760056       -2.4432935282
 H         -5.8790029432       -0.0421982521       -1.5824912689
 H         -5.6164468470        0.4545506669        1.0510905671
 H         -4.2574953191       -0.3382851327        1.8369077137
 H         -5.4926266360       -1.2980514112        1.0111910015
 H         -2.4875553368        0.1911861800       -1.4478223027
 H         -2.2866650291        0.1650988756        1.6069354531
 H         -2.0477480404        1.6737944675        0.7339646526
 H         -1.9356758301       -1.7763498041        0.0439625679
 H          3.8563610075       -1.5952844195       -0.6041664738
 H          5.5636277288        0.2028065096       -0.4574992362
 H          4.8689495322        2.5033155055        0.1179389234
 H          2.4743858379        2.9959316398        0.5447141781
  32
  -51.423760180000002        3.0507920420094231E-005 !
 C         -5.0779365312       -0.9828908557        1.2673369229
 C         -4.2204426037       -0.2319844024        0.2969391864
 C         -4.9411074905        0.4619536283       -0.8220514857
 C         -2.8977100877       -0.1825215143        0.4212722605
 C         -1.9935746618        0.5774056837       -0.5136627108
 C         -0.5408519188        0.2243009320       -0.3448071246
 C         -0.1011885531       -1.0568981598       -0.4497633875
 O         -0.8920336144       -2.1021982544       -0.7166569422
 C          1.3272018979       -1.4370339515       -0.2853294742
 O          1.6850141863       -2.6003625006       -0.3965906592
 C          2.2596124387       -0.3413951359        0.0150463717
 C          3.6104444218       -0.6251847203        0.1963935383
 C          4.5088454902        0.3903398929        0.4798718570
 C          4.0637716947        1.6987690220        0.5830178314
 C          2.7206128076        1.9912680523        0.4038383573
 C          1.8089890924        0.9806947861        0.1206382747
 C          0.3820925662        1.3216178001       -0.0626068539
 O         -0.0065096827        2.4849037140        0.0185864654
 H         -5.7774706858       -0.3021611946        1.7504619110
 H         -4.4780778414       -1.4675794334        2.0329947312
 H         -5.6601454058       -1.7397779039        0.7434341974
 H         -4.6666641767        0.0354622297       -1.7861895746
 H         -4.6801172577        1.5187344696       -0.8442354180
 H         -6.0163606261        0.3707517582       -0.7016705560
 H         -2.4153584526       -0.6652650990        1.2608345879
 H         -2.0897771416        1.6529804910       -0.3300508969
 H         -2.2981650205        0.4067782027       -1.5516767721
 H         -1.8285857925       -1.8393218836       -0.7742771590
 H          3.9326498477       -1.6519159110        0.1089948319
 H          5.5529362134        0.1595389250        0.6191934300
 H          4.7596827630        2.4924962653        0.8037391679
 H          2.3526494179        3.0035656280        0.4803610526
  32
  -51.423759109999999        3.0473396811979977E-005 !
 C         -5.0794017998       -0.9712989330        1.2743873946
 C         -4.2198045499       -0.2329382254        0.2960609659
 C         -4.9376822241        0.4362180906       -0.8399628452
 C         -2.8982664949       -0.1727668603        0.4281431563
 C         -1.9934672040        0.5791815897       -0.5126062407
 C         -0.5410195340        0.2252304742       -0.3433078819
 C         -0.1022039259       -1.0564177133       -0.4461423263
 O         -0.8945877678       -2.1022020305       -0.7072017191
 C          1.3270501390       -1.4360928837       -0.2884440400
 O          1.6857872392       -2.5983575678       -0.4077218087
 C          2.2595910662       -0.3409923617        0.0137781953
 C          3.6103861835       -0.6251261449        0.1948558003
 C          4.5086523142        0.3898077839        0.4811881416
 C          4.0635404774        1.6979946674        0.5868583411
 C          2.7205672839        1.9909709984        0.4069353767
 C          1.8090629163        0.9809617320        0.1213568811
 C          0.3826114373        1.3223004201       -0.0627671214
 O         -0.0053686277        2.4858023996        0.0172132042
 H         -4.4821696112       -1.4382679757        2.0530100084
 H         -5.6538173036       -1.7410115858        0.7606593077
 H         -5.7860049657       -0.2856764798        1.7400006317
 H         -4.6833366435        1.4941987169       -0.8805430643
 H         -6.0129975756        0.3402441389       -0.7243003841
 H         -4.6552027116       -0.0065467584       -1.7945956639
 H         -2.4178053934       -0.6379757891        1.2785706309
 H         -2.0876474632        1.6559655412       -0.3350408332
 H         -2.2991377547        0.4024062055       -1.5490632668
 H         -1.8315532492       -1.8395733942       -0.7591958604
 H          3.9323643362       -1.6518226266        0.1059264298
 H          5.5525989850        0.1584899049        0.6210219158
 H          4.7592301331        2.4913619541        0.8095570210
 H          2.3526163966        3.0032473864        0.4842570454
  32
  -51.423736540000000        2.9754209261085273E-005 !
 C         -5.0113605805       -0.7249248166       -1.4696817248
 C         -4.1734583613       -0.3156217693       -0.2951834743
 C         -4.8744974119       -0.4182708024        1.0254326613
 C         -2.9281800144        0.1229065523       -0.4633072664
 C         -1.9927810687        0.6213685547        0.6029427679
 C         -0.5530709844        0.2652975084        0.3339198103
 C         -0.1751734958       -1.0025113756        0.0245605882
 O         -1.0205389158       -2.0336092268       -0.0767212323
 C          1.2406429967       -1.3851148087       -0.2242887741
 O          1.5410772148       -2.5371531758       -0.5003918407
 C          2.2335412123       -0.3074000833       -0.1117950739
 C          3.5794659865       -0.5945784106       -0.3217120279
 C          4.5339717764        0.4042452762       -0.2211301312
 C          4.1501068514        1.6990011573        0.0900975476
 C          2.8121526713        1.9949956981        0.2998167321
 C          1.8449989910        1.0012829916        0.2021719593
 C          0.4255837536        1.3460398338        0.4304658472
 O          0.0879646344        2.4985527474        0.6924889095
 H         -5.9251551463       -0.1337764539       -1.4969535404
 H         -5.2992072338       -1.7716617124       -1.3820351554
 H         -4.4777959127       -0.5863832808       -2.4059293086
 H         -5.5430253683        0.4332800827        1.1481186958
 H         -4.1865418296       -0.4255925155        1.8652455227
 H         -5.4797692095       -1.3215508012        1.0586831988
 H         -2.5306163341        0.1948535995       -1.4685714435
 H         -2.2786154754        0.2395429854        1.5865021860
 H         -2.0466629544        1.7138167560        0.6558792681
 H         -1.9494276829       -1.7405329272        0.0098186466
 H          3.8527906994       -1.6107163379       -0.5634135788
 H          5.5738813313        0.1709661924       -0.3853839232
 H          4.8898146546        2.4798224774        0.1690970152
 H          2.4913148324        2.9973308874        0.5416321339
  32
  -51.423755530000001        3.0358171692791660E-005 !
 C         -5.0694169239       -0.9640117434        1.2902494040
 C         -4.2170010541       -0.2284013714        0.3037134238
 C         -4.9427434528        0.4426537479       -0.8260902157
 C         -2.8942953302       -0.1724613598        0.4241401106
 C         -1.9936771148        0.5736359109       -0.5252344600
 C         -0.5407966244        0.2222027713       -0.3541201098
 C         -0.1008349784       -1.0594003408       -0.4516092631
 O         -0.8910556569       -2.1065270909       -0.7131528562
 C          1.3273902554       -1.4382439570       -0.2838011405
 O          1.6861594781       -2.6014066495       -0.3922988611
 C          2.2584541645       -0.3414800625        0.0164059759
 C          3.6087761774       -0.6243757846        0.2027182233
 C          4.5057545502        0.3920342608        0.4875200264
 C          4.0597305425        1.7004380379        0.5866638298
 C          2.7172188424        1.9921465032        0.4015158740
 C          1.8070981737        0.9807170696        0.1169150630
 C          0.3810318522        1.3208526695       -0.0737821213
 O         -0.0078440837        2.4844549238        0.0004844953
 H         -5.7630632965       -0.2746361285        1.7695866961
 H         -4.4651584899       -1.4404606644        2.0576335535
 H         -5.6580232665       -1.7256155371        0.7807882214
 H         -4.6856057365        1.4996849192       -0.8688371663
 H         -6.0172308576        0.3500423767       -0.7012721375
 H         -4.6690224180       -0.0011303885       -1.7826515359
 H         -2.4086102525       -0.6396375078        1.2704885018
 H         -2.0888936267        1.6516812726       -0.3562972169
 H         -2.3016258895        0.3879178747       -1.5594832470
 H         -1.8277581488       -1.8450560207       -0.7740489739
 H          3.9313268449       -1.6514509074        0.1198606575
 H          5.5493284375        0.1618698185        0.6314895075
 H          4.7547071536        2.4950014899        0.8073921943
 H          2.3489639099        3.0047633446        0.4727649346
  32
  -51.423736519999999        2.9753579552681644E-005 !
 C         -5.0689139454       -0.4647085591       -1.5565875360
 C         -4.2175657708       -0.0971637024       -0.3813943695
 C         -4.9470771247        0.2014441358        0.8960673685
 C         -2.8923281519       -0.0357825248       -0.4657547371
 C         -1.9960732116        0.3547491623        0.6806932848
 C         -0.5416480155        0.0823978935        0.4089887679
 C         -0.0932619796       -1.1643287398        0.1086043253
 O         -0.8762823140       -2.2462329827        0.0337245298
 C          1.3382251924       -1.4654047601       -0.1607778739
 O          1.7056561094       -2.6049446027       -0.4063842176
 C          2.2614908863       -0.3229727503       -0.1110112691
 C          3.6139607215       -0.5266052000       -0.3707391189
 C          4.5037354291        0.5342736104       -0.3299892519
 C          4.0483124152        1.8078684892       -0.0278911376
 C          2.7036034003        2.0203679891        0.2334637236
 C          1.8007111804        0.9641298701        0.1943275979
 C          0.3724190155        1.2206565937        0.4769150539
 O         -0.0245019037        2.3494174600        0.7583079666
 H         -5.7453398930        0.3546971427       -1.7960420012
 H         -5.6759848989       -1.3374896236       -1.3200300587
 H         -4.4628428630       -0.6836665108       -2.4317250784
 H         -6.0216287034        0.1710044476        0.7419063380
 H         -4.6746978169        1.1881344850        1.2675211709
 H         -4.6904246075       -0.5224757593        1.6689480783
 H         -2.4006211144       -0.2237370056       -1.4109133643
 H         -2.3071986176       -0.1634382872        1.5939212452
 H         -2.0946691541        1.4277504194        0.8772954595
 H         -1.8142872511       -2.0243213161        0.1735180240
 H          3.9443061473       -1.5281789546       -0.6019746976
 H          5.5492537256        0.3657551992       -0.5332147485
 H          4.7376522825        2.6365923474        0.0053917212
 H          2.3276716166        3.0044488177        0.4709052040
  32
  -51.423735180000001        2.9711419437863376E-005 !
 C         -5.0654948378       -0.6251481857       -1.4953879888
 C         -4.2102872288       -0.1987701396       -0.3429203229
 C         -4.9177480038       -0.0189940247        0.9694717774
 C         -2.9049350700        0.0148437157       -0.4821290115
 C         -1.9960535045        0.4775660811        0.6251359367
 C         -0.5462047453        0.1675160181        0.3651164363
 C         -0.1291790790       -1.0899620227        0.0641840817
 O         -0.9430146473       -2.1479403532       -0.0261431836
 C          1.2961019894       -1.4299551483       -0.1883501640
 O          1.6333490213       -2.5762088653       -0.4456992369
 C          2.2523710890       -0.3167065145       -0.1081112266
 C          3.6031065899       -0.5594311940       -0.3416310932
 C          4.5236002411        0.4734994919       -0.2736076421
 C          4.1006860654        1.7579671328        0.0296386124
 C          2.7577974501        2.0093306316        0.2647395889
 C          1.8243511673        0.9813280441        0.1985452996
 C          0.3986744468        1.2789161474        0.4526039166
 O          0.0285220933        2.4183367643        0.7273760654
 H         -4.4779551295       -0.7461411939       -2.4016629589
 H         -5.8400797540        0.1183516338       -1.6780169734
 H         -5.5592599381       -1.5685907745       -1.2662479548
 H         -4.7705144288        0.9923786610        1.3447078982
 H         -4.5336344929       -0.7085668000        1.7202170231
 H         -5.9831005696       -0.1961328894        0.8572798055
 H         -2.4427650160       -0.0882873621       -1.4552416386
 H         -2.3019421216        0.0307081618        1.5762011415
 H         -2.0781814572        1.5633800626        0.7436849912
 H         -1.8777287053       -1.8886518879        0.0787918717
 H          3.9073050832       -1.5685145968       -0.5760343030
 H          5.5674549101        0.2747762199       -0.4570845772
 H          4.8140136467        2.5650217500        0.0843123049
 H          2.4070612220        3.0023741875        0.5033005366
  32
  -51.423734940000003        2.9703874683020495E-005 !
 C         -4.9887816116       -1.2584935794        1.1136199830
 C         -4.1717128256       -0.4071060657        0.1877279833
 C         -4.9040497915        0.0369614482       -1.0417385268
 C         -2.9175169840       -0.0798564017        0.4887448630
 C         -1.9954543842        0.8042600759       -0.3048268751
 C         -0.5536378669        0.3748269122       -0.2124995343
 C         -0.1732554806       -0.9080978024       -0.4472767470
 O         -1.0171474152       -1.8930215163       -0.7725800856
 C          1.2439193728       -1.3553807840       -0.3792422662
 O          1.5474734470       -2.5179764964       -0.6024214052
 C          2.2340451331       -0.3245244507       -0.0372168525
 C          3.5799782061       -0.6709441152        0.0437730752
 C          4.5319340306        0.2827638404        0.3648786014
 C          4.1454493188        1.5911613877        0.6085257915
 C          2.8074998251        1.9456680957        0.5308690062
 C          1.8429870797        0.9978580889        0.2087283703
 C          0.4236156686        1.4045568678        0.1332304683
 O          0.0849826039        2.5657030967        0.3523931623
 H         -5.8973937247       -0.7308927156        1.3989234181
 H         -4.4349395825       -1.5116392936        2.0134738684
 H         -5.2865730810       -2.1799258778        0.6151200677
 H         -5.4681462222       -0.7934544588       -1.4618638009
 H         -4.2413587989        0.4335315713       -1.8043007643
 H         -5.6153220282        0.8186053452       -0.7767406435
 H         -2.4987856368       -0.4256214776        1.4262042454
 H         -2.0486856512        1.8284937447        0.0790164411
 H         -2.2925074392        0.8408232372       -1.3561168466
 H         -1.9461192727       -1.5917416875       -0.7347180827
 H          3.8555416829       -1.6967262730       -0.1498062763
 H          5.5718415442        0.0038256465        0.4246645368
 H          4.8830735696        2.3369009977        0.8591488551
 H          2.4848205228        2.9591586859        0.7171264199
  32
  -51.423732590000000        2.9630100106352281E-005 !
 C         -5.0554443422       -0.4524957194       -1.5748471402
 C         -4.2121790311       -0.0919719973       -0.3915546960
 C         -4.9503452214        0.1985922607        0.8827528915
 C         -2.8864251559       -0.0319329524       -0.4661593274
 C         -1.9969216019        0.3497030084        0.6886016644
 C         -0.5417336982        0.0787070623        0.4199131752
 C         -0.0935350972       -1.1669661424        0.1149811477
 O         -0.8771084933       -2.2481403645        0.0351690336
 C          1.3378337428       -1.4668515492       -0.1555569946
 O          1.7063742194       -2.6061578561       -0.4002731054
 C          2.2593419247       -0.3227688900       -0.1118990601
 C          3.6097689767       -0.5236393901       -0.3840839651
 C          4.4978698051        0.5389179746       -0.3503944249
 C          4.0429866011        1.8110344410       -0.0413634393
 C          2.7003797438        2.0206281514        0.2330336373
 C          1.7989347799        0.9629497954        0.1997122779
 C          0.3724294375        1.2163616268        0.4940757952
 O         -0.0231921412        2.3422498711        0.7883926205
 H         -4.4431612848       -0.6639418180       -2.4474465503
 H         -5.7321362632        0.3670679779       -1.8129270498
 H         -5.6621448148       -1.3284152710       -1.3487317221
 H         -4.6967068590       -0.5277050759        1.6538841478
 H         -6.0233761693        0.1659744094        0.7216432790
 H         -4.6832348002        1.1841908991        1.2603638437
 H         -2.3886931112       -0.2169410683       -1.4084711648
 H         -2.3129292008       -0.1755413214        1.5961525967
 H         -2.0959300685        1.4211934418        0.8928917039
 H         -1.8153905616       -2.0258709668        0.1724002390
 H          3.9394436785       -1.5241038197       -0.6208515855
 H          5.5416102307        0.3728471940       -0.5645488182
 H          4.7309757104        2.6410231711       -0.0135860773
 H          2.3251170349        3.0034040487        0.4765335729
  32
  -51.423751570000000        3.0231223415534786E-005 !
 C         -5.0556246824       -0.7142367140       -1.4556311000
 C         -4.1973382661       -0.2602678877       -0.3158926754
 C         -4.8787716245       -0.1690854389        1.0195680170
 C         -2.9161041026        0.0530713407       -0.4911242704
 C         -1.9974114555        0.5535103990        0.5895654637
 C         -0.5511841088        0.2184726724        0.3359803577
 C         -0.1527544766       -1.0452167298        0.0355639214
 O         -0.9827536974       -2.0894709766       -0.0651318591
 C          1.2694466787       -1.4083767526       -0.2035835681
 O          1.5895819394       -2.5593093651       -0.4617068225
 C          2.2440755504       -0.3125037663       -0.1071101616
 C          3.5933123165       -0.5780221542       -0.3243836465
 C          4.5310678507        0.4379766778       -0.2387086615
 C          4.1269879524        1.7283148256        0.0655003931
 C          2.7856043312        2.0025857661        0.2831733895
 C          1.8350212570        0.9916875348        0.1994282697
 C          0.4112004402        1.3137610212        0.4338629516
 O          0.0565201520        2.4602101876        0.7001931602
 H         -5.4680232807       -1.6999259468       -1.2444384079
 H         -4.4918807405       -0.7602027782       -2.3836246641
 H         -5.8906357019       -0.0276505552       -1.5873518620
 H         -5.9094505684       -0.5026287449        0.9456111762
 H         -4.8726627335        0.8592964584        1.3774168080
 H         -4.3735092525       -0.7804147227        1.7657281065
 H         -2.4833357013        0.0098292893       -1.4824698934
 H         -2.2991299736        0.1513221572        1.5610266295
 H         -2.0673697551        1.6442001091        0.6611312268
 H         -1.9154825635       -1.8109323043        0.0180236836
 H          3.8826263226       -1.5912388171       -0.5598322632
 H          5.5736947518        0.2213361687       -0.4080982020
 H          4.8536830420        2.5220062370        0.1349504835
 H          2.4494512560        3.0007752414        0.5211263953
  32
  -51.423732510000001        2.9627591859010796E-005 !
 C         -4.9939727570       -0.7097071395       -1.4947665882
 C         -4.1687941981       -0.3094470104       -0.3080157952
 C         -4.8842207696       -0.4262539864        1.0033928918
 C         -2.9220940770        0.1305708503       -0.4600380214
 C         -1.9931313410        0.6155973494        0.6183352162
 C         -0.5529876458        0.2610291165        0.3491668052
 C         -0.1757158448       -1.0052018635        0.0327463482
 O         -1.0215362349       -2.0356392309       -0.0713466630
 C          1.2396596184       -1.3863105913       -0.2212334906
 O          1.5406220056       -2.5382726439       -0.4968805102
 C          2.2313586621       -0.3068379040       -0.1152851135
 C          3.5755777046       -0.5903563108       -0.3408417005
 C          4.5292622800        0.4097402961       -0.2452023598
 C          4.1462113809        1.7022937915        0.0761901685
 C          2.8099141109        1.9947209427        0.3009934343
 C          1.8436463168        0.9996290319        0.2085609150
 C          0.4258179460        1.3409543678        0.4516420251
 O          0.0896512410        2.4901561538        0.7296173290
 H         -4.4526014706       -0.5585715462       -2.4246137445
 H         -5.9107610920       -0.1232288400       -1.5243084439
 H         -5.2769320493       -1.7588575913       -1.4210693585
 H         -5.5858435856        0.4005710310        1.1077543648
 H         -4.2092724481       -0.4004496439        1.8531958632
 H         -5.4567399514       -1.3509013609        1.0362690948
 H         -2.5154463897        0.2110744617       -1.4610679562
 H         -2.2836097094        0.2214281833        1.5955599736
 H         -2.0461839508        1.7073399140        0.6846234597
 H         -1.9497784315       -1.7426142502        0.0200069049
 H          3.8482393323       -1.6048452103       -0.5901552797
 H          5.5677905006        0.1794211043       -0.4219483461
 H          4.8852920695        2.4839857861        0.1520385876
 H          2.4899288109        2.9950062492        0.5520647240
  32
  -51.423729250000001        2.9525561195090655E-005 !
 C         -4.9803891653       -0.7071421712       -1.5021160014
 C         -4.1563011358       -0.3249824940       -0.3085233330
 C         -4.8584084616       -0.5049464208        1.0028117213
 C         -2.9228966948        0.1528411390       -0.4564487354
 C         -1.9945225911        0.6303820526        0.6256356432
 C         -0.5553434166        0.2730021982        0.3537588439
 C         -0.1835634878       -0.9938082955        0.0332525034
 O         -1.0345907971       -2.0197724677       -0.0723922550
 C          1.2294280711       -1.3795257661       -0.2255797121
 O          1.5251430027       -2.5310656137       -0.5085055932
 C          2.2256414157       -0.3045633363       -0.1162367319
 C          3.5685525090       -0.5934518264       -0.3425862078
 C          4.5264806841        0.4024829841       -0.2459437149
 C          4.1488894529        1.6961386574        0.0774459694
 C          2.8139635605        1.9936948065        0.3039654277
 C          1.8434459639        1.0028708596        0.2103925342
 C          0.4272324073        1.3494079961        0.4559204397
 O          0.0955110237        2.4995530723        0.7354096089
 H         -4.4403827678       -0.5347764077       -2.4290944778
 H         -5.8999559523       -0.1243267381       -1.5198804740
 H         -5.2588153014       -1.7586277641       -1.4489626135
 H         -4.1831928254       -0.4550032644        1.8514405762
 H         -5.3764243469       -1.4619730101        1.0209205536
 H         -5.6070781656        0.2776421366        1.1228025152
 H         -2.5269903025        0.2720446197       -1.4578332972
 H         -2.2858324054        0.2323729301        1.6008301643
 H         -2.0447412039        1.7219106170        0.6957929567
 H         -1.9612529839       -1.7205572358        0.0181604737
 H          3.8367173225       -1.6087042155       -0.5937601938
 H          5.5640380838        0.1680912280       -0.4232220978
 H          4.8912390041        2.4747191385        0.1535718821
 H          2.4983483314        2.9950231247        0.5563677597
  32
  -51.423750960000000        3.0211715492310967E-005 !
 C         -5.0021858590       -1.2346810573        1.1225838059
 C         -4.1822856000       -0.3881838752        0.1952868448
 C         -4.9240371878        0.1029061462       -1.0106346961
 C         -2.9146383722       -0.0964789618        0.4753824972
 C         -1.9938779834        0.7801162280       -0.3280360894
 C         -0.5509353974        0.3579781184       -0.2263716112
 C         -0.1637677772       -0.9254937328       -0.4473897738
 O         -1.0010682426       -1.9180353236       -0.7672000679
 C          1.2548790618       -1.3657053682       -0.3674652937
 O          1.5645712221       -2.5291320035       -0.5773580162
 C          2.2389537503       -0.3272502151       -0.0309982771
 C          3.5860490883       -0.6669534036        0.0589200816
 C          4.5325869660        0.2941814127        0.3737018030
 C          4.1394738627        1.6034715530        0.6013401036
 C          2.8002594596        1.9512514518        0.5150748217
 C          1.8410591191        0.9957557423        0.1997610348
 C          0.4200516012        1.3949003295        0.1159182407
 O          0.0747670638        2.5555655062        0.3268282370
 H         -5.3441496903       -2.1328673204        0.6104249908
 H         -5.8843488988       -0.6842331972        1.4456291580
 H         -4.4327699835       -1.5280511289        2.0002029748
 H         -5.5880798479       -0.6729364356       -1.3852396860
 H         -4.2595519065        0.4138164119       -1.8109760478
 H         -5.5376116706        0.9599505490       -0.7346382303
 H         -2.4838625295       -0.4668249733        1.3977175334
 H         -2.0525727250        1.8101252770        0.0390255297
 H         -2.2907427827        0.7994864297       -1.3801183233
 H         -1.9317491418       -1.6217874386       -0.7412986728
 H          3.8665704213       -1.6937392909       -0.1217340269
 H          5.5735035854        0.0205701526        0.4404436847
 H          4.8730715089        2.3552197361        0.8455488082
 H          2.4725185001        2.9652613226        0.6895343938
  32
  -51.423728949999997        2.9516189543650293E-005 !
 C         -5.0546851804       -0.7293731245       -1.4465292563
 C         -4.1946296186       -0.2745960155       -0.3081295482
 C         -4.8721921372       -0.2010585690        1.0302457526
 C         -2.9191848662        0.0585228420       -0.4906838407
 C         -1.9972039224        0.5694923300        0.5817375323
 C         -0.5518164469        0.2291067563        0.3293906826
 C         -0.1571598981       -1.0360343349        0.0301515229
 O         -0.9904917326       -2.0776649167       -0.0696832977
 C          1.2641353679       -1.4038783729       -0.2082439761
 O          1.5808405437       -2.5560467837       -0.4659489818
 C          2.2424378627       -0.3113459915       -0.1085423994
 C          3.5913416652       -0.5813862072       -0.3227277660
 C          4.5328360238        0.4305042277       -0.2303454603
 C          4.1331653193        1.7210716267        0.0785203128
 C          2.7919330309        2.0003307158        0.2907777082
 C          1.8375048795        0.9937401070        0.1996212803
 C          0.4139619346        1.3213221996        0.4273445967
 O          0.0618263801        2.4703936298        0.6851058618
 H         -4.4977783262       -0.7523887964       -2.3796657695
 H         -5.9032758984       -0.0560711532       -1.5615683883
 H         -5.4473822272       -1.7254412972       -1.2456608304
 H         -4.3191758963       -0.7536713232        1.7881501037
 H         -5.8765844990       -0.6102102381        0.9722934223
 H         -4.9398234042        0.8345250176        1.3612060312
 H         -2.4942982806        0.0260561528       -1.4858320613
 H         -2.2969318778        0.1803000392        1.5589469153
 H         -2.0649090627        1.6611047539        0.6402171176
 H         -1.9225355209       -1.7950486402        0.0116601799
 H          3.8772285206       -1.5946258833       -0.5622796367
 H          5.5750811788        0.2105216618       -0.3973176858
 H          4.8627537479        2.5118261247        0.1522401429
 H          2.4590501687        2.9989728872        0.5315509763
  32
  -51.423750759999997        3.0205322192498544E-005 !
 C         -5.0026313738       -1.2283719592        1.1287742224
 C         -4.1822683193       -0.3870370933        0.1973217021
 C         -4.9232992343        0.0974760407       -1.0118952047
 C         -2.9146084185       -0.0943061981        0.4760794561
 C         -1.9938073737        0.7785805376       -0.3315110555
 C         -0.5508135281        0.3570682266       -0.2284489928
 C         -0.1633100592       -0.9264047461       -0.4480667728
 O         -1.0005237002       -1.9191952040       -0.7673346441
 C          1.2553550068       -1.3663898991       -0.3666943310
 O          1.5654043933       -2.5301780783       -0.5741386648
 C          2.2390224682       -0.3273113636       -0.0307279817
 C          3.5861555478       -0.6665947859        0.0602813625
 C          4.5322440412        0.2950066772        0.3751221291
 C          4.1385873181        1.6042492601        0.6024417854
 C          2.7993574279        1.9515223552        0.5153037700
 C          1.8407089984        0.9957356746        0.1991929513
 C          0.4198393010        1.3947884388        0.1124383114
 O          0.0742229437        2.5557705980        0.3211818581
 H         -5.3404210503       -2.1318657806        0.6230088211
 H         -5.8873173089       -0.6774341740        1.4437560798
 H         -4.4357310135       -1.5128271027        2.0109702436
 H         -5.5312647207        0.9606250259       -0.7429365595
 H         -5.5920699862       -0.6780153227       -1.3786200814
 H         -4.2584337770        0.3972417894       -1.8161851638
 H         -2.4842775642       -0.4592636159        1.4007641525
 H         -2.0523856275        1.8100501864        0.0315315076
 H         -2.2907509026        0.7937645072       -1.3836232351
 H         -1.9311229692       -1.6229693533       -0.7414871087
 H          3.8671838925       -1.6931991475       -0.1208053396
 H          5.5732086149        0.0216714874        0.4424428860
 H          4.8717038888        2.3562121295        0.8475643985
 H          2.4712182617        2.9655825957        0.6885613138
  32
  -51.423757539999997        3.0422811381650115E-005 !
 C         -5.0811829600       -1.1198513064        1.1483851607
 C         -4.2163037442       -0.3068119967        0.2359696700
 C         -4.9159196345        0.3455422573       -0.9214752404
 C         -2.9112558114       -0.1661072913        0.4505984679
 C         -1.9950498097        0.6706608685       -0.4011245129
 C         -0.5460495361        0.2839474094       -0.2700379028
 C         -0.1277595310       -0.9967767134       -0.4446821039
 O         -0.9372544239       -2.0170879408       -0.7492240278
 C          1.2972225319       -1.4054950371       -0.3214907878
 O          1.6325892850       -2.5706563333       -0.4747730514
 C          2.2546556644       -0.3349624357       -0.0097463996
 C          3.6070497091       -0.6425642690        0.1105590521
 C          4.5285769105        0.3490270359        0.4048980562
 C          4.1047238978        1.6564950844        0.5823578218
 C          2.7600306810        1.9724729953        0.4643964686
 C          1.8258999681        0.9865098872        0.1684645388
 C          0.3988185862        1.3527145464        0.0478623617
 O          0.0277394534        2.5139245687        0.2053838972
 H         -5.8555208826       -0.4901303007        1.5839775258
 H         -4.5011360603       -1.5654212973        1.9521206360
 H         -5.5755358372       -1.9123534557        0.5883528961
 H         -4.8175961704        1.4286401463       -0.8626537182
 H         -5.9723068707        0.0935511541       -0.9222752574
 H         -4.4867758285        0.0282878522       -1.8711644053
 H         -2.4558139656       -0.6228083324        1.3195273604
 H         -2.0752311902        1.7228407696       -0.1075269897
 H         -2.2972826704        0.6129301500       -1.4512095650
 H         -1.8720534864       -1.7405587540       -0.7705515432
 H          3.9117003461       -1.6684683700       -0.0310466400
 H          5.5739281935        0.1003071418        0.4957080637
 H          4.8185080455        2.4314438038        0.8117926456
 H          2.4085146870        2.9844751782        0.5989792476
  32
  -51.423728820000001        2.9512129418693818E-005 !
 C         -4.9920745764       -1.2440891061        1.1285786179
 C         -4.1780728599       -0.3933259009        0.1999844123
 C         -4.9231918160        0.0910071412       -1.0066800500
 C         -2.9118503437       -0.0944564562        0.4790133754
 C         -1.9948232805        0.7848146061       -0.3258755970
 C         -0.5515272324        0.3628346963       -0.2289334304
 C         -0.1661008327       -0.9207630141       -0.4514906178
 O         -1.0055395320       -1.9114089892       -0.7714395303
 C          1.2517565001       -1.3632452210       -0.3716210396
 O          1.5601097924       -2.5266729868       -0.5835523615
 C          2.2368252003       -0.3269020471       -0.0314880769
 C          3.5827364117       -0.6698040319        0.0639240120
 C          4.5302789814        0.2891947805        0.3823088070
 C          4.1394875387        1.5997186937        0.6070452217
 C          2.8014930587        1.9505833637        0.5153637791
 C          1.8411578816        0.9970903841        0.1975514552
 C          0.4210832560        1.3990816876        0.1105547327
 O          0.0778177312        2.5611614018        0.3171368023
 H         -4.4244577333       -1.5232219325        2.0120029223
 H         -5.3182422153       -2.1508181673        0.6209582691
 H         -5.8837154470       -0.7034034731        1.4416115902
 H         -5.5836308645       -0.6892377896       -1.3784303153
 H         -4.2610602918        0.4028979042       -1.8087724014
 H         -5.5406344406        0.9457698633       -0.7324551226
 H         -2.4789909808       -0.4611112621        1.4019410148
 H         -2.0529783405        1.8140112117        0.0434376709
 H         -2.2948177889        0.8058767658       -1.3770248079
 H         -1.9356337896       -1.6132162716       -0.7412299106
 H          3.8615076066       -1.6973564460       -0.1153750592
 H          5.5701538442        0.0129466750        0.4541842956
 H          4.8739263433        2.3499564552        0.8538195255
 H          2.4755181888        2.9655726806        0.6871395168
  32
  -51.423748349999997        3.0128389223443877E-005 !
 C         -4.9965182208       -1.2112465710        1.1534485360
 C         -4.1793324737       -0.3858586172        0.2046395943
 C         -4.9231974250        0.0676211197       -1.0146138913
 C         -2.9133517436       -0.0814284853        0.4782476612
 C         -1.9938352496        0.7785954581       -0.3446622206
 C         -0.5509951823        0.3574655068       -0.2372620991
 C         -0.1636049686       -0.9273848786       -0.4488453768
 O         -1.0005129709       -1.9221713951       -0.7624596293
 C          1.2552822302       -1.3666431791       -0.3671428362
 O          1.5660543854       -2.5299122746       -0.5766848202
 C          2.2380130052       -0.3275418550       -0.0287275577
 C          3.5843521153       -0.6676427619        0.0700552409
 C          4.5296463436        0.2941771246        0.3866518931
 C          4.1360393828        1.6044819186        0.6075462542
 C          2.7976061870        1.9527316299        0.5120126075
 C          1.8396274356        0.9965888581        0.1948911359
 C          0.4193644771        1.3963070191        0.1010676526
 O          0.0741859346        2.5589610170        0.3008728421
 H         -4.4277851134       -1.4773402192        2.0402121583
 H         -5.3330680383       -2.1251402202        0.6660107744
 H         -5.8821968634       -0.6566997199        1.4591727531
 H         -5.5668313821        0.9072351756       -0.7545582896
 H         -5.5588018473       -0.7333433303       -1.3861358122
 H         -4.2614841306        0.3902696536       -1.8124323851
 H         -2.4825422400       -0.4256171342        1.4106928695
 H         -2.0508387501        1.8151529269        0.0039708795
 H         -2.2922034888        0.7782484910       -1.3963913696
 H         -1.9310056098       -1.6262280743       -0.7407211159
 H          3.8655408016       -1.6950250824       -0.1063890833
 H          5.5699102958        0.0200207444        0.4606069556
 H          4.8685231475        2.3565832196        0.8542448611
 H          2.4695327676        2.9674891157        0.6812056854
  32
  -51.423728460000000        2.9500888909903546E-005 !
 C         -4.9889088602       -1.2723447774        1.0954671427
 C         -4.1693019528       -0.4138123809        0.1783622028
 C         -4.8940147404        0.0256701788       -1.0571531426
 C         -2.9201283385       -0.0786141161        0.4914929502
 C         -1.9956951169        0.8127698861       -0.2910195266
 C         -0.5545156073        0.3802644392       -0.2020926367
 C         -0.1762744451       -0.9014451501       -0.4467410609
 O         -1.0222171015       -1.8823694890       -0.7787303118
 C          1.2399377171       -1.3518374507       -0.3809747346
 O          1.5406383440       -2.5148700623       -0.6055591604
 C          2.2327915942       -0.3234106305       -0.0395564318
 C          3.5789708016       -0.6710702325        0.0311132648
 C          4.5336053891        0.2806093239        0.3501743435
 C          4.1494690067        1.5880768413        0.6024943029
 C          2.8111898195        1.9435559589        0.5360653402
 C          1.8440283887        0.9978863578        0.2156199894
 C          0.4243941593        1.4057225401        0.1515423908
 O          0.0869638596        2.5643026568        0.3852825749
 H         -5.8990010555       -0.7476113883        1.3811241214
 H         -4.4381649138       -1.5308473263        1.9955990417
 H         -5.2841285671       -2.1905377845        0.5897839656
 H         -4.2304364014        0.4468310812       -1.8056593859
 H         -5.6285154821        0.7859377190       -0.7939663678
 H         -5.4310174219       -0.8138451467       -1.4943128977
 H         -2.5077141718       -0.4240897983        1.4318568039
 H         -2.0477389233        1.8325955577        0.1043893892
 H         -2.2910844627        0.8612820252       -1.3421862724
 H         -1.9505530581       -1.5792633300       -0.7361754484
 H          3.8525387723       -1.6961893978       -0.1687876009
 H          5.5737368196        0.0008594751        0.4017523394
 H          4.8892595059        2.3323840960        0.8508391718
 H          2.4903307249        2.9562852835        0.7293882507
  32
  -51.423702599999999        2.8704545121483965E-005 !
 C         -5.0789871239       -0.4570358493       -1.5488821899
 C         -4.2216687366       -0.0805197652       -0.3807588659
 C         -4.9458724241        0.2730338230        0.8852766316
 C         -2.8949540586       -0.0603399486       -0.4596157954
 C         -1.9956790536        0.3337769787        0.6835265821
 C         -0.5408563306        0.0680476088        0.4083257579
 C         -0.0856979047       -1.1776515979        0.1139776090
 O         -0.8618961858       -2.2651549041        0.0492308145
 C          1.3461791603       -1.4704679644       -0.1622902107
 O          1.7178848438       -2.6067349902       -0.4160016944
 C          2.2643806174       -0.3241094265       -0.1105140611
 C          3.6189183594       -0.5226524813       -0.3633479992
 C          4.5039943827        0.5421129940       -0.3211935478
 C          4.0413791586        1.8147987201       -0.0262877221
 C          2.6944372088        2.0223356688        0.2275633782
 C          1.7966054788        0.9617846049        0.1890451633
 C          0.3665706803        1.2120699645        0.4681758771
 O         -0.0366707181        2.3400863415        0.7433659147
 H         -5.7273816482        0.3755826173       -1.8183907640
 H         -5.7151894113       -1.3017605648       -1.2884503461
 H         -4.4761596750       -0.7231884477       -2.4130928319
 H         -4.6296778325        1.2511861531        1.2441795672
 H         -4.7297925368       -0.4501792156        1.6708889032
 H         -6.0192169638        0.2909436099        0.7224879652
 H         -2.4044877165       -0.2903965457       -1.3959239842
 H         -2.3023267689       -0.1861632482        1.5975911501
 H         -2.0983807055        1.4061941090        0.8812196756
 H         -1.8004117368       -2.0494207646        0.1941486073
 H          3.9544322903       -1.5234478796       -0.5903914391
 H          5.5513173198        0.3773688263       -0.5181470417
 H          4.7265516797        2.6469949035        0.0059489639
 H          2.3132800711        3.0053131026        0.4607931979
  32
  -51.423726449999997        2.9438208039848588E-005 !
 C         -4.9865485562       -0.6769015029       -1.5243848421
 C         -4.1745021555       -0.2827952937       -0.3268471622
 C         -4.9191653667       -0.3470011813        0.9718322744
 C         -2.9106041016        0.1118886937       -0.4579564986
 C         -1.9926052127        0.5820464571        0.6368283927
 C         -0.5499771895        0.2383117429        0.3690241738
 C         -0.1664497627       -1.0243500315        0.0462114625
 O         -1.0070306863       -2.0584867646       -0.0623399910
 C          1.2507756387       -1.3970339681       -0.2092608872
 O          1.5592532948       -2.5481531443       -0.4796389996
 C          2.2343393093       -0.3087363253       -0.1168338922
 C          3.5774654456       -0.5807075065       -0.3618457966
 C          4.5237354547        0.4275932151       -0.2795616790
 C          4.1346189897        1.7161297873        0.0505365416
 C          2.7995394191        1.9965993127        0.2968623058
 C          1.8402897576        0.9938435267        0.2149932005
 C          0.4228140826        1.3229942840        0.4765129953
 O          0.0819165230        2.4668400022        0.7704372199
 H         -4.4191016465       -0.5632302597       -2.4439583830
 H         -5.8810328277       -0.0592595178       -1.5866254249
 H         -5.3081829372       -1.7137643138       -1.4374145130
 H         -5.5578281142       -1.2273411547        0.9952283295
 H         -5.5593279292        0.5296024691        1.0660428086
 H         -4.2570954920       -0.3696199967        1.8320114962
 H         -2.4791837336        0.1619413924       -1.4503980346
 H         -2.2894119122        0.1668410217        1.6037906441
 H         -2.0514337351        1.6719088462        0.7249784063
 H         -1.9363445351       -1.7730278302        0.0365879620
 H          3.8548205731       -1.5924012460       -0.6173824465
 H          5.5614944602        0.2063890523       -0.4716446675
 H          4.8680998841        2.5039041876        0.1171455944
 H          2.4748115873        2.9938186974        0.5539692430
  32
  -51.423721299999997        2.9278214890002290E-005 !
 C         -4.9939789700       -0.7193970414       -1.4854075791
 C         -4.1630465025       -0.3237476478       -0.3010084269
 C         -4.8614427570       -0.4786854926        1.0155250519
 C         -2.9268462323        0.1433957807       -0.4599436882
 C         -1.9937985989        0.6304008826        0.6137926318
 C         -0.5546928073        0.2728636165        0.3422825636
 C         -0.1813166181       -0.9945558497        0.0259094269
 O         -1.0314920179       -2.0212323134       -0.0809241836
 C          1.2330191915       -1.3809353698       -0.2245876221
 O          1.5300911000       -2.5332017694       -0.5032535927
 C          2.2287477697       -0.3057666190       -0.1126893995
 C          3.5730798951       -0.5956559477       -0.3289566923
 C          4.5302057154        0.4010149285       -0.2319588062
 C          4.1503857371        1.6964903762        0.0812645855
 C          2.8141551777        1.9948528349        0.2986792537
 C          1.8445213015        1.0031036107        0.2055497283
 C          0.4273244328        1.3499160107        0.4446306903
 O          0.0944634206        2.5006543234        0.7203135533
 H         -5.2624567483       -1.7730320409       -1.4233667548
 H         -4.4637471916       -0.5483168236       -2.4182094877
 H         -5.9187040488       -0.1449993805       -1.4984536006
 H         -4.1811400954       -0.4321897688        1.8600480325
 H         -5.3954469945       -1.4262227389        1.0458304178
 H         -5.5957201126        0.3176156912        1.1319181332
 H         -2.5335808443        0.2470414453       -1.4643557833
 H         -2.2810003364        0.2393569903        1.5931497072
 H         -2.0452225148        1.7223480758        0.6764513873
 H         -1.9588781568       -1.7214157167        0.0013978230
 H          3.8430515295       -1.6122644400       -0.5724303017
 H          5.5689091008        0.1657910258       -0.4009405790
 H          4.8920076625        2.4757731752        0.1570474760
 H          2.4967174903        2.9973004204        0.5441929999
  32
  -51.423720230000001        2.9245082850960625E-005 !
 C         -5.0806892188       -0.4755566307       -1.5418743220
 C         -4.2226968336       -0.0887342285       -0.3777065487
 C         -4.9456265506        0.2613502385        0.8902745298
 C         -2.8964845264       -0.0578595707       -0.4612887955
 C         -1.9957278388        0.3450403967        0.6773441548
 C         -0.5412422198        0.0752754161        0.4039239575
 C         -0.0888028356       -1.1711500889        0.1085468841
 O         -0.8671113255       -2.2569452911        0.0400703963
 C          1.3430432161       -1.4675086717       -0.1639120854
 O          1.7127758498       -2.6051335257       -0.4145185404
 C          2.2639890345       -0.3234817486       -0.1108543940
 C          3.6181198929       -0.5251336956       -0.3633662427
 C          4.5060250119        0.5371235332       -0.3181887309
 C          4.0466623834        1.8103629892       -0.0206000258
 C          2.6999852529        2.0210925363        0.2321549447
 C          1.7993047116        0.9630382750        0.1905648501
 C          0.3693976061        1.2167002749        0.4672596767
 O         -0.0314222955        2.3455576780        0.7425697987
 H         -5.6988505968       -1.3331984066       -1.2812100959
 H         -4.4790044433       -0.7265366426       -2.4112152423
 H         -5.7464885704        0.3454326588       -1.8029929403
 H         -4.7057312920       -0.4464817410        1.6829947210
 H         -6.0202754504        0.2513996723        0.7359895335
 H         -4.6508011989        1.2514542153        1.2348040510
 H         -2.4078193338       -0.2832410399       -1.3996960734
 H         -2.3021317707       -0.1664457175        1.5962887826
 H         -2.0968480887        1.4192153002        0.8662139126
 H         -1.8056613552       -2.0400891351        0.1836050479
 H          3.9511095352       -1.5263622170       -0.5924054545
 H          5.5526064035        0.3704257090       -0.5170300314
 H          4.7341500781        2.6405350147        0.0141846002
 H          2.3213248797        3.0046006103        0.4672831067
  32
  -51.423719980000001        2.9237347125310428E-005 !
 C         -5.0881789770       -0.5018442160       -1.5262497091
 C         -4.2257927244       -0.0947341000       -0.3722238964
 C         -4.9450515985        0.2868132495        0.8887108432
 C         -2.8995201419       -0.0727363295       -0.4587168836
 C         -1.9954053967        0.3524082072        0.6691235224
 C         -0.5411661621        0.0791794418        0.3976429051
 C         -0.0884242473       -1.1692705174        0.1112824624
 O         -0.8648749995       -2.2571359445        0.0580765128
 C          1.3411925702       -1.4644739462       -0.1748260410
 O          1.7066573158       -2.5990716782       -0.4446565104
 C          2.2646260170       -0.3230376775       -0.1131105793
 C          3.6197832774       -0.5272266841       -0.3580613036
 C          4.5102099610        0.5323660184       -0.3022181485
 C          4.0522849654        1.8055922531       -0.0022417604
 C          2.7044498918        2.0190331473        0.2415950742
 C          1.8012490483        0.9636721895        0.1894355930
 C          0.3699446215        1.2204806313        0.4557799031
 O         -0.0310920826        2.3515003465        0.7218560190
 H         -4.4891766190       -0.7847273907       -2.3877143722
 H         -5.7420667396        0.3214411308       -1.8105331383
 H         -5.7188158050       -1.3433663372       -1.2428656357
 H         -6.0186696779        0.3093090946        0.7273037864
 H         -4.6215113639        1.2689344819        1.2296721156
 H         -4.7331347124       -0.4241894207        1.6867398537
 H         -2.4139508133       -0.3230417447       -1.3924703918
 H         -2.2994206952       -0.1399007307        1.5990190603
 H         -2.0965493667        1.4300946296        0.8371301029
 H         -1.8017636532       -2.0419238082        0.2140603192
 H          3.9514209735       -1.5282025826       -0.5900456073
 H          5.5580334264        0.3633401359       -0.4926108047
 H          4.7419694548        2.6334327718        0.0425190784
 H          2.3266829920        3.0028279503        0.4770728195
  32
  -51.423710579999998        2.8947963949912356E-005 !
 C         -4.9883516128       -0.5746611933       -1.5685265504
 C         -4.1863049284       -0.2259592907       -0.3501963752
 C         -4.9672291925       -0.2433614666        0.9284708499
 C         -2.8990819355        0.0939631007       -0.4463719921
 C         -1.9896623351        0.5126701147        0.6776677074
 C         -0.5445827549        0.1907176431        0.3996284196
 C         -0.1445999471       -1.0663653620        0.0753141201
 O         -0.9699256398       -2.1140513862       -0.0230094778
 C          1.2751370577       -1.4170805943       -0.1962881622
 O          1.5988836298       -2.5640881693       -0.4668049679
 C          2.2422144865       -0.3131252360       -0.1177955816
 C          3.5868979473       -0.5644759667       -0.3760172876
 C          4.5173944434        0.4595770582       -0.3096635980
 C          4.1106257243        1.7436408331        0.0170100309
 C          2.7739305309        2.0034557793        0.2766539296
 C          1.8307216384        0.9845168926        0.2120786479
 C          0.4117296016        1.2914864851        0.4911367575
 O          0.0562397842        2.4302234202        0.7871170109
 H         -5.8390814537        0.0988719178       -1.6581804865
 H         -5.3785549676       -1.5881551237       -1.4866629462
 H         -4.3893116265       -0.5025125465       -2.4721443212
 H         -5.6333813918       -1.1031931833        0.9499667795
 H         -5.5825792042        0.6535486003        0.9889577343
 H         -4.3292376563       -0.2691106117        1.8063302605
 H         -2.4379567689        0.1184478796       -1.4260925615
 H         -2.2912194053        0.0465849341        1.6198163470
 H         -2.0553999201        1.5963637046        0.8199967818
 H         -1.9015390784       -1.8493181968        0.0950518678
 H          3.8783130625       -1.5729821044       -0.6284651471
 H          5.5564488790        0.2544141828       -0.5127364100
 H          4.8316101319        2.5439399838        0.0702630398
 H          2.4357409345        2.9962687464        0.5334307625
  32
  -51.423746190000003        3.0059603380426746E-005 !
 C         -5.0806432470       -0.9495284904        1.2861671569
 C         -4.2214226471       -0.2199926361        0.3009389054
 C         -4.9420064627        0.4621089938       -0.8257460189
 C         -2.8979555270       -0.1783524306        0.4190391704
 C         -1.9928733067        0.5630532250       -0.5300413859
 C         -0.5400472105        0.2144896922       -0.3526205346
 C         -0.0972757368       -1.0664111216       -0.4462048882
 O         -0.8856791272       -2.1155433565       -0.7048341421
 C          1.3322907136       -1.4414443010       -0.2798667604
 O          1.6937451580       -2.6040638975       -0.3872318597
 C          2.2609478461       -0.3420316470        0.0177499651
 C          3.6122824471       -0.6211248064        0.2027374034
 C          4.5072625277        0.3982148055        0.4833500618
 C          4.0581603994        1.7056860523        0.5803254057
 C          2.7144954589        1.9936247979        0.3970104563
 C          1.8063709583        0.9792688330        0.1165238055
 C          0.3790693940        1.3154952461       -0.0721602836
 O         -0.0127910278        2.4781392347        0.0034909024
 H         -4.4806345905       -1.4421756018        2.0464820852
 H         -5.6848050744       -1.6967566751        0.7738571409
 H         -5.7599214373       -0.2524801668        1.7750332367
 H         -4.7047088282       -0.0077681440       -1.7797606146
 H         -4.6455989309        1.5074357751       -0.8903393689
 H         -6.0167449811        0.4129440973       -0.6793856059
 H         -2.4156729616       -0.6525865877        1.2634541248
 H         -2.0894309106        1.6419821963       -0.3671503259
 H         -2.2964470015        0.3715084929       -1.5646278251
 H         -1.8225553829       -1.8549618439       -0.7666413426
 H          3.9372695208       -1.6474253510        0.1204963825
 H          5.5518208196        0.1711408439        0.6255058513
 H          4.7514343966        2.5026923531        0.7975973352
 H          2.3438283092        3.0053803795        0.4672106696
  32
  -51.423743770000002        2.9982724279904605E-005 !
 C         -5.0006923718       -0.6951616934       -1.4943538754
 C         -4.1696182315       -0.3078713107       -0.3073458773
 C         -4.8781040938       -0.4375467684        1.0066946443
 C         -2.9239332556        0.1347770290       -0.4602585603
 C         -1.9931465014        0.6117499108        0.6200046285
 C         -0.5530956860        0.2590128601        0.3480762019
 C         -0.1747444825       -1.0066737089        0.0308888512
 O         -1.0201416580       -2.0371751857       -0.0773256644
 C          1.2414906821       -1.3877420459       -0.2175854862
 O          1.5440041386       -2.5402289574       -0.4891392350
 C          2.2323156746       -0.3074121213       -0.1122075222
 C          3.5771240339       -0.5906833588       -0.3343911889
 C          4.5295267980        0.4109999346       -0.2429187141
 C          4.1446056733        1.7048159974        0.0710775686
 C          2.8078925934        1.9966538521        0.2940807611
 C          1.8428690126        0.9999382857        0.2059560835
 C          0.4248309164        1.3400692651        0.4493036200
 O          0.0876540136        2.4891797587        0.7262937429
 H         -5.9164587453       -0.1065403817       -1.5141328051
 H         -5.2853690896       -1.7445182672       -1.4294502531
 H         -4.4629759026       -0.5359304637       -2.4250794275
 H         -4.1957153627       -0.4487412328        1.8513727623
 H         -5.4729794397       -1.3485158187        1.0226888942
 H         -5.5575653004        0.4046104602        1.1366775940
 H         -2.5214538270        0.2267314071       -1.4618407576
 H         -2.2831544968        0.2108131550        1.5946828356
 H         -2.0460893104        1.7030305482        0.6937203121
 H         -1.9488820614       -1.7446096278        0.0099774011
 H          3.8511893707       -1.6061265071       -0.5781517639
 H          5.5685090545        0.1809019775       -0.4171691781
 H          4.8826221621        2.4878906365        0.1427750431
 H          2.4865430269        2.9976107758        0.5406611213
  32
  -51.423664129999999        2.7559483947469773E-005 !
 C         -4.9761044705       -0.7159555912       -1.4988714109
 C         -4.1502142809       -0.3348079298       -0.3058571893
 C         -4.8409167390       -0.5467007523        1.0069579271
 C         -2.9263938865        0.1663586042       -0.4562429711
 C         -1.9954837114        0.6434941456        0.6236819624
 C         -0.5572476499        0.2816421278        0.3512605537
 C         -0.1888436971       -0.9856523050        0.0284619018
 O         -1.0422277274       -2.0093201498       -0.0807072077
 C          1.2236892862       -1.3754442684       -0.2265917026
 O          1.5164839111       -2.5280160110       -0.5088347664
 C          2.2228468201       -0.3034513203       -0.1158839734
 C          3.5651029758       -0.5955838343       -0.3421792628
 C          4.5255739035        0.3977787507       -0.2447005980
 C          4.1513937052        1.6919589241        0.0805544948
 C          2.8172263857        1.9927105646        0.3072951744
 C          1.8440819122        1.0046215283        0.2119957893
 C          0.4285549000        1.3549093202        0.4559982912
 O          0.0999780289        2.5060074863        0.7353025675
 H         -5.9100445694       -0.1562717221       -1.4983986030
 H         -5.2273321369       -1.7750493694       -1.4613954342
 H         -4.4492356668       -0.5144273676       -2.4275623531
 H         -5.3192216545       -1.5243461606        1.0233905445
 H         -5.6215541637        0.2033557550        1.1307574079
 H         -4.1667123498       -0.4714481830        1.8543310084
 H         -2.5408430379        0.3070446933       -1.4589489592
 H         -2.2863052001        0.2486206874        1.6001617697
 H         -2.0422424736        1.7354249203        0.6910221065
 H         -1.9681937223       -1.7066286314        0.0059360699
 H          3.8305643774       -1.6114858802       -0.5935050981
 H          5.5624736268        0.1605526723       -0.4216532534
 H          4.8959104248        2.4682852322        0.1589207171
 H          2.5044306386        2.9943174690        0.5622739377
  32
  -51.423739580000003        2.9850080064770373E-005 !
 C         -5.0000320895       -1.2384563088        1.1234718383
 C         -4.1765881286       -0.3988689079        0.1930525276
 C         -4.9074459298        0.0641429588       -1.0307044217
 C         -2.9158481549       -0.0887980772        0.4848409176
 C         -1.9952644792        0.7893639521       -0.3171253510
 C         -0.5523718486        0.3657312209       -0.2201606636
 C         -0.1681881517       -0.9175200718       -0.4467838215
 O         -1.0093399529       -1.9065501052       -0.7670894863
 C          1.2498409198       -1.3605725088       -0.3740946089
 O          1.5569942465       -2.5233412435       -0.5911315861
 C          2.2365204744       -0.3255552621       -0.0345957893
 C          3.5829629083       -0.6686271920        0.0523395195
 C          4.5316605036        0.2886959178        0.3722707392
 C          4.1413628134        1.5973923939        0.6082618462
 C          2.8029750712        1.9486416743        0.5241103969
 C          1.8415789850        0.9971129665        0.2035496922
 C          0.4214922354        1.4002055216        0.1211557101
 O          0.0794862660        2.5620079598        0.3315823691
 H         -5.3257201735       -2.1493204544        0.6231453222
 H         -5.8922887449       -0.6916360980        1.4238925020
 H         -4.4404636804       -1.5099299725        2.0143377163
 H         -4.2361891469        0.3550816999       -1.8330183733
 H         -5.5226067642        0.9278637058       -0.7809436556
 H         -5.5683096345       -0.7201978833       -1.3922485490
 H         -2.4921693084       -0.4419187559        1.4172379685
 H         -2.0524203345        1.8176763971        0.0549794253
 H         -2.2935376396        0.8135912969       -1.3686392031
 H         -1.9387753461       -1.6065834873       -0.7347375014
 H          3.8613911762       -1.6946975047       -0.1358741208
 H          5.5719907773        0.0124482330        0.4368179808
 H          4.8764852392        2.3458995028        0.8578782544
 H          2.4775846015        2.9624121269        0.7039771656
  32
  -51.423736589999997        2.9755783590177691E-005 !
 C         -5.0672829343       -0.4635608544       -1.5568641418
 C         -4.2169672575       -0.0964751283       -0.3805428339
 C         -4.9478038433        0.1910860901        0.8987684009
 C         -2.8921177398       -0.0314645232       -0.4647809999
 C         -1.9956372257        0.3549774098        0.6830069505
 C         -0.5414473391        0.0832373503        0.4093485167
 C         -0.0938090166       -1.1634560245        0.1080320493
 O         -0.8778897622       -2.2444447266        0.0311698846
 C          1.3376694171       -1.4647697906       -0.1607170803
 O          1.7047396028       -2.6038361685       -0.4084935865
 C          2.2614730813       -0.3229119927       -0.1095818070
 C          3.6143727045       -0.5278511123       -0.3659904647
 C          4.5044830522        0.5328081121       -0.3264311601
 C          4.0487684372        1.8074524135       -0.0292909845
 C          2.7037125637        2.0210675317        0.2294510463
 C          1.8006514957        0.9649058519        0.1924696383
 C          0.3725054726        1.2215997829        0.4756786716
 O         -0.0243521582        2.3504818191        0.7567497969
 H         -4.4599465194       -0.6887213350       -2.4294835612
 H         -5.7387796785        0.3582965871       -1.8015184257
 H         -5.6794380767       -1.3323003425       -1.3187745480
 H         -4.6343524655        1.1485328207        1.3113718579
 H         -4.7379842759       -0.5743107618        1.6453928923
 H         -6.0201777968        0.2176523855        0.7303302800
 H         -2.4005062699       -0.2147453834       -1.4108930684
 H         -2.3064518093       -0.1669495225        1.5940897193
 H         -2.0931877264        1.4274514688        0.8829842021
 H         -1.8164127493       -2.0209613498        0.1656526429
 H          3.9442032818       -1.5300443379       -0.5951917189
 H          5.5503923834        0.3633041969       -0.5267227015
 H          4.7380507701        2.6362456000        0.0021674407
 H          2.3279465907        3.0058759507        0.4638185309
  32
  -51.423708529999999        2.8885235211694843E-005 !
 C         -5.0734922256       -0.4674005449       -1.5535867274
 C         -4.2200498924       -0.0811595534       -0.3859329927
 C         -4.9482751334        0.2901458471        0.8727215453
 C         -2.8928573860       -0.0669700232       -0.4592440903
 C         -1.9965276513        0.3355312210        0.6832524414
 C         -0.5411871063        0.0680326636        0.4124138261
 C         -0.0862575718       -1.1777043549        0.1178123999
 O         -0.8619156243       -2.2656881977        0.0543020742
 C          1.3448990376       -1.4699770121       -0.1629370267
 O          1.7154915131       -2.6053834148       -0.4220569626
 C          2.2632409890       -0.3237936101       -0.1121410296
 C          3.6164942566       -0.5214379958       -0.3725655637
 C          4.5016858013        0.5432329590       -0.3312292908
 C          4.0406332881        1.8146632229       -0.0284853181
 C          2.6950808158        2.0211475185        0.2334427617
 C          1.7968677481        0.9609523958        0.1943356397
 C          0.3676356552        1.2107285438        0.4780251687
 O         -0.0339782581        2.3373323626        0.7614558862
 H         -5.7248575474        0.3608971958       -1.8289556382
 H         -5.7065035233       -1.3135247497       -1.2897175543
 H         -4.4675977275       -0.7358741068       -2.4148692269
 H         -4.7241962026       -0.4142275241        1.6732817662
 H         -6.0217995104        0.2936253563        0.7096148480
 H         -4.6420721521        1.2788729029        1.2115167962
 H         -2.3996375841       -0.3078435469       -1.3914874378
 H         -2.3055447326       -0.1773362306        1.6005033879
 H         -2.0998199447        1.4091810638        0.8736702591
 H         -1.8000469121       -2.0513178763        0.2035548333
 H          3.9506868414       -1.5212734343       -0.6055889692
 H          5.5481009519        0.3793026291       -0.5340707505
 H          4.7264545290        2.6463644637        0.0055463146
 H          2.3151836767        3.0032789294        0.4723242240
  32
  -51.423699829999997        2.8620529560415759E-005 !
 C         -5.0477844830       -1.3037585972        0.9860063339
 C         -4.1865658031       -0.4084930272        0.1487352884
 C         -4.8582051897        0.1741143414       -1.0605726858
 C         -2.9289161684       -0.1400783237        0.4926437074
 C         -1.9986118869        0.7898001287       -0.2346153126
 C         -0.5554800572        0.3625903878       -0.1629863115
 C         -0.1707482089       -0.9129938226       -0.4288762941
 O         -1.0123052797       -1.8956941298       -0.7683952902
 C          1.2484640001       -1.3554290659       -0.3792799000
 O          1.5533429432       -2.5164821944       -0.6090785123
 C          2.2393604244       -0.3222927106       -0.0463911421
 C          3.5892522749       -0.6598092156       -0.0028381112
 C          4.5417534468        0.2963288226        0.3095267294
 C          4.1517757659        1.5979908141        0.5819829616
 C          2.8098175053        1.9434236944        0.5419089956
 C          1.8446363143        0.9931687426        0.2287243142
 C          0.4209641008        1.3897966399        0.1935558161
 O          0.0779144392        2.5417274513        0.4509624336
 H         -5.9362676937       -0.7640535780        1.3105513613
 H         -4.5154870814       -1.6605523312        1.8635391292
 H         -5.3777087532       -2.1621212764        0.4023220884
 H         -5.1570183977        1.2023241976       -0.8590513298
 H         -5.7488259268       -0.3953278839       -1.3112656873
 H         -4.1996112318        0.1861788298       -1.9261412479
 H         -2.5256852952       -0.5638641134        1.4041447906
 H         -2.0583604102        1.7906531756        0.2061775386
 H         -2.2935996446        0.8884395491       -1.2830961686
 H         -1.9428530038       -1.5999242802       -0.7097498551
 H          3.8673238819       -1.6805965078       -0.2181931253
 H          5.5848834741        0.0246106037        0.3393689675
 H          4.8898352003        2.3458167875        0.8248035084
 H          2.4842333239        2.9514665929        0.7510846012
  32
  -51.423623419999998        2.6397455139643931E-005 !
 C         -4.9977941346       -0.7526069606       -1.4553364905
 C         -4.1492280164       -0.3574491692       -0.2831720335
 C         -4.7997256708       -0.5925201604        1.0461483466
 C         -2.9411712295        0.1724877233       -0.4635201223
 C         -1.9963022803        0.6724440251        0.5929335764
 C         -0.5601823873        0.3008949513        0.3215637113
 C         -0.1953867046       -0.9699465348        0.0092209067
 O         -1.0513270003       -1.9915321785       -0.0988466118
 C          1.2172172842       -1.3676744497       -0.2337247966
 O          1.5059537772       -2.5222850803       -0.5110688458
 C          2.2218747643       -0.3020474721       -0.1124243819
 C          3.5655639557       -0.6050138339       -0.3142410228
 C          4.5314568678        0.3818332280       -0.2039472374
 C          4.1607497173        1.6808319899        0.1059443569
 C          2.8248242891        1.9926947731        0.3062099448
 C          1.8466577234        1.0104361393        0.2015971201
 C          0.4301436379        1.3705343518        0.4244724021
 O          0.1044062902        2.5259915789        0.6884802259
 H         -5.2427463649       -1.8123738311       -1.4055971908
 H         -4.4929053660       -0.5539106148       -2.3965573660
 H         -5.9346292633       -0.1983212205       -1.4382884375
 H         -5.2522316349       -1.5817682193        1.0707043436
 H         -5.5950222305        0.1367065709        1.1942519804
 H         -4.1061398948       -0.5046955406        1.8761797787
 H         -2.5837464164        0.3230076280       -1.4751631734
 H         -2.2781822371        0.3044418023        1.5823879228
 H         -2.0398479650        1.7658638590        0.6321708350
 H         -1.9773724995       -1.6856207443       -0.0189731663
 H          3.8283220240       -1.6245379997       -0.5537665932
 H          5.5697134423        0.1362313275       -0.3603458403
 H          4.9092221568        2.4525524035        0.1915148412
 H          2.5146597948        2.9981447874        0.5488153973
  32
  -51.423621259999997        2.6337187357062280E-005 !
 C         -5.0212524376       -1.0013759758        1.3102225336
 C         -4.2046277013       -0.2805639360        0.2803080214
 C         -4.9850733065        0.2420808681       -0.8880399197
 C         -2.8955860196       -0.1068608388        0.4357247644
 C         -1.9892720032        0.6471791844       -0.5007216713
 C         -0.5409573003        0.2695973156       -0.3372661477
 C         -0.1205820680       -1.0167440575       -0.4557878289
 O         -0.9261698443       -2.0495895153       -0.7260260167
 C          1.3045315193       -1.4170684501       -0.3082981005
 O          1.6475256501       -2.5820230893       -0.4451938106
 C          2.2525206790       -0.3387669150        0.0056164977
 C          3.6001479234       -0.6432014636        0.1770263404
 C          4.5127481816        0.3555668331        0.4742741645
 C          4.0851361756        1.6676667603        0.6016546118
 C          2.7454557219        1.9808160198        0.4316489656
 C          1.8198954766        0.9872017396        0.1341392424
 C          0.3974897566        1.3500130136       -0.0412538116
 O          0.0246745399        2.5168828852        0.0596787053
 H         -5.8207748198       -0.3543099051        1.6677779148
 H         -4.4125646689       -1.3060532693        2.1572707226
 H         -5.4832375406       -1.8862840205        0.8741788676
 H         -5.3641418770        1.2374272365       -0.6580870492
 H         -5.8368930586       -0.4017322659       -1.0926914425
 H         -4.3787116065        0.3197615451       -1.7861940203
 H         -2.4165193758       -0.4783423696        1.3328343756
 H         -2.0666168884        1.7211312984       -0.3017574578
 H         -2.2929459974        0.4938790767       -1.5406511221
 H         -1.8615787837       -1.7790493109       -0.7669244893
 H          3.9079965612       -1.6727125646        0.0724064323
 H          5.5541181525        0.1089083633        0.6061190968
 H          4.7921032206        2.4483344194        0.8333872435
 H          2.3914440476        2.9965443678        0.5259174485
  32
  -51.423620509999999        2.6316293242628015E-005 !
 C         -5.0173361243       -0.6052746001       -1.5357558064
 C         -4.2051847576       -0.2022228047       -0.3411190741
 C         -4.9857682771       -0.1189412922        0.9356364455
 C         -2.9047234274        0.0523401647       -0.4478985184
 C         -1.9877866845        0.4943964492        0.6635007300
 C         -0.5420829111        0.1779872059        0.3840847495
 C         -0.1331347310       -1.0799935583        0.0745736163
 O         -0.9501641129       -2.1357660334       -0.0062730260
 C          1.2872343663       -1.4220193091       -0.2036023710
 O          1.6154467214       -2.5653653887       -0.4838394976
 C          2.2502026606       -0.3152079861       -0.1164165183
 C          3.5988968106       -0.5636170918       -0.3559756695
 C          4.5256757676        0.4631015689       -0.2803159070
 C          4.1109842463        1.7473305895        0.0348528074
 C          2.7701229789        2.0046336063        0.2747963832
 C          1.8306568866        0.9825199762        0.2026538061
 C          0.4077121837        1.2856125116        0.4647440670
 O          0.0442321311        2.4260225704        0.7435984485
 H         -4.3935994491       -0.7285510569       -2.4168834818
 H         -5.7699199538        0.1530597979       -1.7475038039
 H         -5.5389855844       -1.5403437005       -1.3383476801
 H         -5.2979453012       -1.1146813700        1.2493546874
 H         -5.8871780531        0.4687331281        0.7729967682
 H         -4.4180323266        0.3412015446        1.7373876755
 H         -2.4376997818       -0.0028246765       -1.4235713850
 H         -2.2796073763        0.0360757861        1.6123373084
 H         -2.0580025015        1.5799870360        0.7913813691
 H         -1.8815900926       -1.8788839232        0.1256810909
 H          3.8962351882       -1.5723911927       -0.6000865432
 H          5.5680356545        0.2599662905       -0.4673192684
 H          4.8289394972        2.5498546153        0.0940562527
 H          2.4256861264        2.9979974703        0.5210827183
  32
  -51.423618189999999        2.6251765666467565E-005 !
 C         -5.0010083925       -0.5110507305       -1.5891573846
 C         -4.1999761637       -0.1725000413       -0.3674661761
 C         -5.0009049289       -0.0876615632        0.8960759393
 C         -2.8922847199        0.0544959829       -0.4439766431
 C         -1.9889445987        0.4502667563        0.6943710361
 C         -0.5408243200        0.1460160151        0.4154550994
 C         -0.1236489065       -1.1062305663        0.0939923397
 O         -0.9322956012       -2.1674116487        0.0006909221
 C          1.3004930696       -1.4370763632       -0.1802306629
 O          1.6411959652       -2.5817019003       -0.4394396946
 C          2.2504277819       -0.3175051933       -0.1177424795
 C          3.5963590932       -0.5484130808       -0.3884795293
 C          4.5108909565        0.4907062803       -0.3360901183
 C          4.0871158018        1.7693414275       -0.0102958691
 C          2.7491264114        2.0089528927        0.2619151555
 C          1.8214536951        0.9749193931        0.2102459712
 C          0.4004200831        1.2605330279        0.5011557690
 O          0.0308787573        2.3935624441        0.8019409343
 H         -5.4612875042       -1.4920367681       -1.4788172369
 H         -4.3814656070       -0.5136440287       -2.4817768363
 H         -5.8015173943        0.2150453393       -1.7212453382
 H         -4.3817743696       -0.1570099730        1.7851551390
 H         -5.7479351063       -0.8780534161        0.9221356815
 H         -5.5261616331        0.8663776230        0.9287949991
 H         -2.4080029525        0.0126264239       -1.4116359264
 H         -2.2936927042       -0.0427413935        1.6222351491
 H         -2.0636551887        1.5291536099        0.8656602568
 H         -1.8666305782       -1.9233895338        0.1330452196
 H          3.9015960618       -1.5532984184       -0.6389179667
 H          5.5509407462        0.3012496192       -0.5486254147
 H          4.7958129729        2.5809674669        0.0329704395
 H          2.3979165515        2.9972763568        0.5184546601
  32
  -51.423605299999998        2.5896119176996516E-005 !
 C         -5.0028709846       -1.0687712524        1.2798818299
 C         -4.2016133313       -0.2912598423        0.2787377212
 C         -4.9971909863        0.2343464473       -0.8777055906
 C         -2.8946456145       -0.1072286949        0.4364526770
 C         -1.9887144252        0.6709798395       -0.4838065654
 C         -0.5407731787        0.2886100873       -0.3261617232
 C         -0.1271970496       -0.9985182371       -0.4592562389
 O         -0.9428318085       -2.0212415207       -0.7374733781
 C          1.2954783375       -1.4084825587       -0.3194930627
 O          1.6319150390       -2.5739827900       -0.4678104732
 C          2.2499702236       -0.3375438795        0.0005411226
 C          3.5965224402       -0.6504884836        0.1648308003
 C          4.5153458318        0.3407120469        0.4684089230
 C          4.0951688829        1.6539258005        0.6084323907
 C          2.7566503397        1.9756524433        0.4451403174
 C          1.8247993147        0.9896649877        0.1420127624
 C          0.4037345221        1.3618535920       -0.0249125374
 O          0.0374186336        2.5299602324        0.0849999490
 H         -5.5379624241       -1.8778488765        0.7857127645
 H         -5.7433562491       -0.4221738556        1.7484001733
 H         -4.3691247288       -1.4880275005        2.0564261767
 H         -5.9007801305        0.7161701540       -0.5095691107
 H         -5.3053755035       -0.5869093661       -1.5242040070
 H         -4.4400525240        0.9554923800       -1.4662942438
 H         -2.4124586464       -0.4973399027        1.3243377493
 H         -2.0641064425        1.7406932806       -0.2617196703
 H         -2.2867602649        0.5325266618       -1.5268489622
 H         -1.8750330871       -1.7365673570       -0.7681991798
 H          3.8986068708       -1.6807755908        0.0507996495
 H          5.5557872973        0.0872561100        0.5951004332
 H          4.8070327878        2.4289543914        0.8442664101
 H          2.4081871132        2.9923892172        0.5490559216
  32
  -51.423544309999997        2.4277592737374467E-005 !
 C         -4.9973724052       -1.0265766008        1.3165278323
 C         -4.2042446164       -0.2713310823        0.2918282823
 C         -5.0204097813        0.2788556132       -0.8372910213
 C         -2.8907346157       -0.1146046199        0.4190382626
 C         -1.9869679800        0.6448604881       -0.5186615727
 C         -0.5384414228        0.2697657940       -0.3504433235
 C         -0.1180729243       -1.0169534919       -0.4653191186
 O         -0.9244581828       -2.0475171778       -0.7414597673
 C          1.3045350524       -1.4194325495       -0.3029788098
 O          1.6459243078       -2.5863068099       -0.4268169546
 C          2.2520331047       -0.3404134134        0.0101183348
 C          3.5982009093       -0.6456016957        0.1912036510
 C          4.5107687714        0.3540021766        0.4859601215
 C          4.0846780040        1.6678033720        0.6004287321
 C          2.7463070711        1.9815891516        0.4215615615
 C          1.8206503102        0.9871077909        0.1272621205
 C          0.3993728399        1.3507374466       -0.0554734844
 O          0.0272092358        2.5183970564        0.0382913881
 H         -5.5025750241       -1.8727262580        0.8530372800
 H         -5.7624728368       -0.3816281942        1.7457924798
 H         -4.3621681732       -1.3943084955        2.1177805437
 H         -4.4083733912        0.7400861448       -1.6050866452
 H         -5.7068031863        1.0323304079       -0.4533758539
 H         -5.6194168808       -0.5115699484       -1.2866714216
 H         -2.3983076426       -0.5161890937        1.2959887071
 H         -2.0662111460        1.7189137034       -0.3213288268
 H         -2.2847435213        0.4847943453       -1.5591386076
 H         -1.8571884631       -1.7701841666       -0.7993270271
 H          3.9052595319       -1.6762932454        0.0956638180
 H          5.5510354987        0.1066410067        0.6252749654
 H          4.7918177410        2.4493196054        0.8289187525
 H          2.3930841028        2.9985225550        0.5058805964
  32
  -51.423543049999999        2.4245244374193406E-005 !
 C         -4.9903966855       -0.9975428102        1.3473987426
 C         -4.2010623131       -0.2656001295        0.3030453132
 C         -5.0209517094        0.2584494917       -0.8357769783
 C         -2.8871171592       -0.1052406422        0.4229307106
 C         -1.9873726237        0.6379409404       -0.5313861583
 C         -0.5384995822        0.2649415556       -0.3624312402
 C         -0.1172588227       -1.0224816899       -0.4655921364
 O         -0.9225087788       -2.0568750217       -0.7304948956
 C          1.3064820303       -1.4216151996       -0.3036610557
 O          1.6505784441       -2.5876693064       -0.4277727743
 C          2.2513368326       -0.3404997568        0.0107361066
 C          3.5960578945       -0.6442113985        0.2048275025
 C          4.5052081683        0.3568070223        0.5053114405
 C          4.0774305507        1.6707994345        0.6110961650
 C          2.7409158516        1.9834494169        0.4169385455
 C          1.8185236540        0.9873175432        0.1180550939
 C          0.3986579783        1.3493494592       -0.0779416968
 O          0.0269842889        2.5186072506       -0.0034640223
 H         -5.5118177077       -1.8437939261        0.9026144631
 H         -5.7419353954       -0.3369161136        1.7767656470
 H         -4.3498566142       -1.3612269318        2.1463331448
 H         -5.6186505985       -0.5429162047       -1.2670006573
 H         -4.4118843202        0.7046159450       -1.6148058434
 H         -5.7087246198        1.0178205201       -0.4669400238
 H         -2.3908090876       -0.4898053619        1.3054822750
 H         -2.0653883902        1.7149434095       -0.3500873312
 H         -2.2898086235        0.4624093211       -1.5678027341
 H         -1.8562145373       -1.7832027109       -0.7857804703
 H          3.9044158859       -1.6750562439        0.1159268195
 H          5.5439487524        0.1103653548        0.6570164888
 H          4.7814513680        2.4531709960        0.8461301131
 H          2.3864395225        3.0004845825        0.4945116521
  32
  -51.423530249999999        2.3919059168771685E-005 !
 C         -4.9900695166       -0.9870042721        1.3515478893
 C         -4.2007900669       -0.2570108279        0.3059647542
 C         -5.0190797598        0.2591125709       -0.8382244760
 C         -2.8863455517       -0.1000477502        0.4219973948
 C         -1.9871224411        0.6309390468       -0.5432586551
 C         -0.5383318836        0.2608571134       -0.3669100005
 C         -0.1154119532       -1.0262889654       -0.4664150530
 O         -0.9188618206       -2.0616448425       -0.7329317582
 C          1.3077841574       -1.4240338758       -0.2970136783
 O          1.6527290787       -2.5907642901       -0.4122800207
 C          2.2513275400       -0.3407224250        0.0129465075
 C          3.5971506276       -0.6418083790        0.2033453957
 C          4.5055598637        0.3614665952        0.4984354122
 C          4.0756246317        1.6747299065        0.6042893048
 C          2.7378456885        1.9846846194        0.4146084827
 C          1.8164236291        0.9865748939        0.1194709822
 C          0.3958801680        1.3461463841       -0.0765111527
 O          0.0214676855        2.5142265543        0.0029950239
 H         -5.7176392163       -0.3163297761        1.8061696027
 H         -4.3452066458       -1.3797154178        2.1329455848
 H         -5.5395105004       -1.8118513858        0.9006513074
 H         -4.4337771359        0.8597132250       -1.5263103619
 H         -5.8325373174        0.8726221229       -0.4550316383
 H         -5.4658392615       -0.5714242274       -1.3836286182
 H         -2.3886221797       -0.4805689282        1.3053074363
 H         -2.0653650608        1.7104437703       -0.3774823855
 H         -2.2892487433        0.4374955439       -1.5763772369
 H         -1.8516410772       -1.7879316806       -0.7985462905
 H          3.9070435253       -1.6722989248        0.1151653523
 H          5.5456553753        0.1175078848        0.6448632671
 H          4.7796031064        2.4589566744        0.8333311191
 H          2.3817711175        3.0011938693        0.4912486636
  32
  -51.423490489999999        2.2933569839853820E-005 !
 C         -5.0008029969       -0.4263056474       -1.6205366206
 C         -4.2050846237       -0.1093475895       -0.3899562288
 C         -5.0218823987        0.0785737464        0.8522863392
 C         -2.8825769877        0.0136810558       -0.4363157504
 C         -1.9894712783        0.3718350797        0.7241897599
 C         -0.5378689714        0.0925913931        0.4402149848
 C         -0.1003609001       -1.1533952070        0.1215504148
 O         -0.8900484717       -2.2297458820        0.0411527642
 C          1.3269105092       -1.4595046274       -0.1650969343
 O          1.6859081970       -2.5988304181       -0.4230233900
 C          2.2561393184       -0.3218404329       -0.1187532754
 C          3.6033660557       -0.5288870349       -0.4022333856
 C          4.4984396478        0.5277721636       -0.3661775201
 C          4.0537007457        1.8003120036       -0.0442474776
 C          2.7143418551        2.0160490137        0.2411503191
 C          1.8062446903        0.9641625775        0.2065434599
 C          0.3838282573        1.2241325106        0.5145120179
 O         -0.0023432364        2.3503652515        0.8199834039
 H         -5.7478947527        0.3476088599       -1.7890262151
 H         -5.5273404332       -1.3716608429       -1.4958269770
 H         -4.3637448972       -0.4945011701       -2.4981772326
 H         -5.8469973542       -0.6298839801        0.8721851045
 H         -5.4450433404        1.0826517368        0.8603023324
 H         -4.4312188153       -0.0403724321        1.7555363691
 H         -2.3759588258       -0.0980455714       -1.3866443185
 H         -2.2969724569       -0.1636945170        1.6279094767
 H         -2.0767773274        1.4415004039        0.9402382470
 H         -1.8257943911       -2.0069428941        0.1936288171
 H          3.9252287281       -1.5294478010       -0.6492868486
 H          5.5397274571        0.3566764027       -0.5882375870
 H          4.7470571227        2.6257049008       -0.0145332297
 H          2.3467937185        2.9991877877        0.4948986020
  32
  -51.423485010000000        2.2800965037536595E-005 !
 C         -4.9936085313       -0.4245066560       -1.6266316785
 C         -4.2057307411       -0.0905291984       -0.3950721860
 C         -5.0356941786        0.1145755804        0.8352876104
 C         -2.8813195171        0.0080486355       -0.4300287738
 C         -1.9884101946        0.3584323558        0.7349810650
 C         -0.5366927835        0.0836214014        0.4467284898
 C         -0.0965066598       -1.1608174372        0.1256247451
 O         -0.8833795246       -2.2392448176        0.0456449309
 C          1.3309913065       -1.4625797789       -0.1644324526
 O          1.6927402843       -2.6006915311       -0.4239568385
 C          2.2570813135       -0.3222944937       -0.1196357055
 C          3.6040543081       -0.5253376096       -0.4070514064
 C          4.4960567278        0.5339172499       -0.3732872766
 C          4.0484221525        1.8051222477       -0.0501343757
 C          2.7094209905        2.0168093103        0.2396724925
 C          1.8043463761        0.9622057697        0.2076586882
 C          0.3821642713        1.2175396058        0.5204706967
 O         -0.0060014752        2.3418266666        0.8303931739
 H         -5.5945220312       -1.3168247534       -1.4579987729
 H         -4.3422132949       -0.5958488428       -2.4792465265
 H         -5.6744876579        0.3905992747       -1.8671380979
 H         -5.5777467299       -0.7987668978        1.0773382840
 H         -5.7739739304        0.8930748066        0.6503088140
 H         -4.4372985707        0.4078067153        1.6911444047
 H         -2.3691514418       -0.1256738462       -1.3746123575
 H         -2.2931714062       -0.1888338329        1.6320691741
 H         -2.0751159022        1.4264219924        0.9599739393
 H         -1.8188202867       -2.0201095938        0.2043871039
 H          3.9279318500       -1.5248317826       -0.6556206140
 H          5.5370861746        0.3660284584       -0.5988174167
 H          4.7395241394        2.6324830053       -0.0216464780
 H          2.3400942149        2.9986235850        0.4957714376
  32
  -51.423472339999996        2.2497305188259645E-005 !
 C         -4.9807813853       -0.8701458744        1.4372947332
 C         -4.1986470772       -0.2114120261        0.3401555094
 C         -5.0312421877        0.2774156844       -0.8055673808
 C         -2.8779307112       -0.0880395147        0.4153884468
 C         -1.9866539507        0.5745753914       -0.6058933885
 C         -0.5361882137        0.2225144873       -0.4093021311
 C         -0.1013993080       -1.0632942304       -0.4643708520
 O         -0.8928713202       -2.1148043754       -0.7016591151
 C          1.3249307811       -1.4421295372       -0.2771828587
 O          1.6838799583       -2.6065292488       -0.3715122451
 C          2.2530013076       -0.3435157067        0.0256095658
 C          3.5968761199       -0.6281946037        0.2515561104
 C          4.4901761682        0.3895631133        0.5433535257
 C          4.0472086619        1.7011509960        0.6087882298
 C          2.7115683821        1.9949667582        0.3819157979
 C          1.8050918668        0.9821547119        0.0904467675
 C          0.3865477102        1.3247326875       -0.1464100151
 O          0.0039583928        2.4924920160       -0.1198919651
 H         -4.3275581658       -1.2350123529        2.2252613458
 H         -5.5545886407       -1.7062962619        1.0405549484
 H         -5.6861708565       -0.1622913756        1.8700355587
 H         -5.5497215724       -0.5584778323       -1.2737549760
 H         -4.4395229080        0.7916575571       -1.5553145131
 H         -5.7890932887        0.9662974076       -0.4361200930
 H         -2.3668206129       -0.4449454112        1.3007531338
 H         -2.0685684618        1.6627977971       -0.5169591052
 H         -2.2946346208        0.3064571887       -1.6205797264
 H         -1.8275469813       -1.8551951306       -0.7862751884
 H          3.9170884690       -1.6577184593        0.1951606366
 H          5.5286613305        0.1580569351        0.7185064587
 H          4.7390349617        2.4964634754        0.8365624451
 H          2.3456595382        3.0098904041        0.4269553502
  32
  -51.422992139999998        1.3534613536353041E-005 !
 C         -4.9088626732       -0.0956939550        1.6797940458
 C         -4.0912200075        0.2167256390        0.4643023094
 C         -4.7285103081        1.1363775485       -0.5368348963
 C         -2.8802444174       -0.2979539871        0.2863362050
 C         -2.0084442356       -0.0260459570       -0.9142837499
 C         -0.5491578925       -0.1829025799       -0.5841571397
 C          0.0178006519       -1.4016917234       -0.3911139576
 O         -0.6399553197       -2.5627749118       -0.4926854602
 C          1.4539835652       -1.5790738607       -0.0471890277
 O          1.9331337591       -2.6944562111        0.0940132644
 C          2.2398567515       -0.3474391466        0.1108194794
 C          3.5876445237       -0.4366536905        0.4481662973
 C          4.3487937701        0.7098630133        0.6058603851
 C          3.7681512598        1.9555211499        0.4276826501
 C          2.4275603477        2.0544071711        0.0892352275
 C          1.6532829676        0.9113249334       -0.0724543481
 C          0.2280491829        1.0470388168       -0.4416944559
 O         -0.2765991279        2.1523816197       -0.6242291853
 H         -4.3821290954       -0.7712168102        2.3487027031
 H         -5.8531723970       -0.5536409510        1.3884780117
 H         -5.1373126611        0.8230030448        2.2186052770
 H         -5.7106550449        1.4523935038       -0.1981510751
 H         -4.8348128954        0.6434343702       -1.5015336387
 H         -4.1121264368        2.0227875788       -0.6844390980
 H         -2.4585729063       -0.9491979939        1.0407073825
 H         -2.1618926566        1.0008690701       -1.2519454477
 H         -2.2883992047       -0.6871182480       -1.7423175312
 H         -1.5757789686       -2.4319273424       -0.7243633252
 H          4.0167539665       -1.4184977571        0.5811016860
 H          5.3916810753        0.6295906973        0.8677527084
 H          4.3565823683        2.8508533665        0.5510742441
 H          1.9559713855        3.0147617920       -0.0560915026
  32
  -51.422977670000002        1.3328949053640253E-005 !
 C         -4.8727521197       -0.0312513066        1.7039754693
 C         -4.0643874783        0.2526773052        0.4753121834
 C         -4.6825940999        1.2012366684       -0.5110136244
 C         -2.8796917980       -0.3123118063        0.2758500836
 C         -2.0130535565       -0.0785281113       -0.9364258645
 C         -0.5533080306       -0.2177878521       -0.5993467089
 C          0.0240349064       -1.4283490844       -0.3865919059
 O         -0.6203537271       -2.5978313154       -0.4783947092
 C          1.4588583609       -1.5867953166       -0.0280173742
 O          1.9470866325       -2.6953855541        0.1338371937
 C          2.2318817505       -0.3457421839        0.1183850719
 C          3.5774514769       -0.4176417510        0.4685317588
 C          4.3275328518        0.7379219180        0.6127599688
 C          3.7380682448        1.9752523943        0.4068476987
 C          2.3992273040        2.0568126417        0.0566265659
 C          1.6355936737        0.9045299949       -0.0900397423
 C          0.2107390000        1.0215752993       -0.4673525575
 O         -0.3043672961        2.1195121764       -0.6641136278
 H         -5.0631695995        0.8948097401        2.2446458739
 H         -4.3586174127       -0.7230701337        2.3659027166
 H         -5.8354520761       -0.4585873804        1.4269071140
 H         -4.8368844301        0.7129006179       -1.4716225196
 H         -4.0300863513        2.0584126510       -0.6753780063
 H         -5.6400992648        1.5620720989       -0.1477018624
 H         -2.4744920101       -0.9823791162        1.0228745177
 H         -2.1715728164        0.9344746257       -1.3102892118
 H         -2.2909580804       -0.7716021135       -1.7382615053
 H         -1.5543998120       -2.4816402363       -0.7243907972
 H          4.0134395555       -1.3933188438        0.6227399231
 H          5.3689701643        0.6711194139        0.8843847121
 H          4.3181789561        2.8775117936        0.5183016372
 H          1.9206591392        3.0104962205       -0.1088923335
