          32
        -51.43177276
 C         -4.5094121383        0.2638806643       -1.7847132293
 C         -3.6703727114        0.4466742681       -0.5554137409
 C         -3.7444404304        1.8086399908        0.0734727934
 C         -2.9455642879       -0.5514743492       -0.0634793132
 C         -2.0760147707       -0.4948733257        1.1652166119
 C         -0.6372067542       -0.4540723449        0.7315739734
 C          0.0153585427       -1.5882258037        0.3683668859
 O         -0.5725194745       -2.7900879124        0.4216699076
 C          1.4194987505       -1.5972414865       -0.0958465349
 O          1.9376577060       -2.6752155587       -0.3815184079
 C          2.1033924414       -0.3083159650       -0.1747008691
 C          3.4239162306       -0.2469073631       -0.6118469289
 C          4.0799301715        0.9711484182       -0.6861181790
 C          3.4197655081        2.1345472749       -0.3247667867
 C          2.1036011609        2.0822548678        0.1110865213
 C          1.4333957692        0.8681499274        0.1911991119
 C          0.0280404993        0.8439712121        0.6607174094
 O         -0.5427573643        1.8825360368        0.9836473148
 H         -5.5482876724        0.5045955444       -1.5648453983
 H         -4.4549123061       -0.7568296031       -2.1533243353
 H         -4.1708360610        0.9386359316       -2.5701266239
 H         -2.7573472781        2.1614677547        0.3659550523
 H         -4.3693871629        1.7800326374        0.9655873284
 H         -4.1767182077        2.5234362039       -0.6213449133
 H         -2.9266700932       -1.5048330115       -0.5746021388
 H         -2.2429345578       -1.3944931462        1.7602454398
 H         -2.2960598132        0.3901531194        1.7589650893
 H          0.0801225684       -3.4648271495        0.1367052851
 H          3.9166911598       -1.1672097794       -0.8873015159
 H          5.1028202111        1.0099820020       -1.0251173623
 H          3.9266027731        3.0848516498       -0.3802505101
 H          1.5735507151        2.9782109641        0.3978675321
