32
Coordinates from ORCA-job 01_opt_freq E -804.705765506046
  C          -4.59053464513689      0.29449031852684     -1.75058517651188
  C          -3.73996523109297      0.45322646588780     -0.51516978077266
  C          -3.83507673985989      1.80244260950581      0.14890928007488
  C          -2.97895289813017     -0.56424601445390     -0.07504038241737
  C          -2.07354930136989     -0.57979714465257      1.13575115799934
  C          -0.62419671862334     -0.51731093887877      0.72600736420684
  C           0.06906059242948     -1.62962979177143      0.36117296689868
  O          -0.45957013458082     -2.85581470999012      0.38454374000574
  C           1.49020627239696     -1.60096111871520     -0.09046033148129
  O           2.01869333799515     -2.67167413669821     -0.36949203635481
  C           2.16529693966965     -0.29345009022882     -0.17696798661617
  C           3.49580011240449     -0.21247992765374     -0.60445594922090
  C           4.12278230206908      1.03176675826365     -0.68129442813382
  C           3.42085506457938      2.19123613768106     -0.33082006415499
  C           2.09278014744051      2.11172274514203      0.09693450087070
  C           1.45651677402222      0.87093411339749      0.17625923847034
  C           0.02806513556992      0.80350244930824      0.63946688762774
  O          -0.56392846086361      1.82978194837414      0.94464512015044
  H          -4.50385257278065     -0.71128086804662     -2.18857011784407
  H          -4.30644445720548      1.03304381731223     -2.52218289132610
  H          -5.65602059667575      0.47999820414944     -1.52291038190946
  H          -4.84875543507346      1.96252313238451      0.55985855592186
  H          -3.67230968396081      2.60281289462847     -0.59430250251286
  H          -3.09761534131158      1.94735406083849      0.94724167705769
  H          -2.97785342155484     -1.49502497669581     -0.65503847575678
  H          -2.24017625388990     -1.51336804973952      1.69694527876503
  H          -2.28830811972871      0.26450409932097      1.80250503660060
  H           0.26385365368530     -3.45318315389424      0.09610515882598
  H           4.01798958684845     -1.13355875060382     -0.87078637128949
  H           5.16106827231921      1.10030712479136     -1.01500253532806
  H           3.91380490702127      3.16491051630253     -0.39175937867958
  H           1.52563060788773      3.00171598930772      0.37556580653442
