32
Coordinates from ORCA-job 03_anion_opt E -805.746688967918
  C          -4.63528056332691      0.31407526779135     -1.77951916957117
  C          -3.85049053599578      0.46243342833885     -0.50307446860415
  C          -4.24315024122532      1.64995757192990      0.33105352538931
  C          -2.89693818478044     -0.41673550006972     -0.18135829722263
  C          -2.00130099721167     -0.42056002444979      1.03113210838437
  C          -0.54337855050948     -0.38355999661918      0.64332524949410
  C           0.14005699652039     -1.54269785615335      0.35387716764103
  O          -0.47436788842428     -2.75411590238960      0.42904870532419
  C           1.51937641871706     -1.60001393850283     -0.04472663315202
  O           2.03666388491596     -2.74200107417548     -0.27959012083670
  C           2.22069437916034     -0.34198287605580     -0.15173471913897
  C           3.57348676455640     -0.30024356968744     -0.53804342956006
  C           4.24297459298758      0.90100573832753     -0.64340617280257
  C           3.57417863979325      2.10332751642580     -0.36346679512626
  C           2.24636822757462      2.08021654534018      0.01755387533014
  C           1.54273113728891      0.87192022702389      0.13271058020404
  C           0.12849100868841      0.88164477124018      0.53868156491411
  O          -0.46091267395115      1.97179650506658      0.78565823338676
  H          -4.32238459618539     -0.56292253206238     -2.34770848569831
  H          -4.51395122166898      1.19822536733951     -2.41468970252219
  H          -5.70700042416189      0.22668433256742     -1.57114965494866
  H          -5.29766182166082      1.57998512027761      0.61809964969930
  H          -4.14116478852195      2.57286827749178     -0.24934002389108
  H          -3.65052332213602      1.75140084498671      1.23729546022116
  H          -2.71513363552268     -1.23405582084661     -0.87569609013806
  H          -2.19107642803122     -1.32936799200049      1.61034768490117
  H          -2.21356622823634      0.43073451363984      1.67408984986347
  H           0.23426403529054     -3.38611304054081      0.18280301363770
  H           4.07955929125312     -1.23288095407637     -0.75152812568366
  H           5.28419284985621      0.91769235086590     -0.94219414304672
  H           4.09937728189353      3.04704407733781     -0.44662036365885
  H           1.72116028755406      3.00073233473902      0.23524270691120
