  32

 C          1.8483100000        1.6151900000       -1.5126400000
 C          3.2376500000        1.0877000000       -1.2620100000
 C          4.3198300000        2.1122600000       -1.0683300000
 C          3.4467300000       -0.2423300000       -1.1845100000
 C          4.7412400000       -0.9489800000       -0.8693600000
 C          5.1785900000       -1.8779200000       -1.9795900000
 C          5.9935900000       -1.5359800000       -2.9958500000
 O          6.5035500000       -0.2585700000       -3.1612100000
 C          6.4137800000       -2.5269000000       -4.0369600000
 O          7.1363000000       -2.2097500000       -4.9761300000
 C          5.9415300000       -3.9129500000       -3.9084300000
 C          6.3338000000       -4.8691200000       -4.8570200000
 C          5.9017700000       -6.1906700000       -4.7390600000
 C          5.0797100000       -6.5600700000       -3.6762800000
 C          4.6864900000       -5.6084400000       -2.7338400000
 C          5.1175100000       -4.2792500000       -2.8522900000
 C          4.6938700000       -3.2840900000       -1.8520800000
 O          3.9605700000       -3.6233000000       -0.9290300000
 H          1.8343200000        2.7062800000       -1.6011200000
 H          1.1845100000        1.3481700000       -0.6830600000
 H          1.4378300000        1.2085700000       -2.4423900000
 H          3.9315400000        3.1339400000       -1.1209600000
 H          5.0778700000        2.0240700000       -1.8507800000
 H          4.7945800000        1.9957900000       -0.0893000000
 H          2.5886400000       -0.9074000000       -1.3101300000
 H          4.6074400000       -1.5046000000        0.0682000000
 H          5.5415000000       -0.2400500000       -0.6383500000
 H          6.0927300000        0.3504700000       -2.5319900000
 H          6.9782600000       -4.5863900000       -5.6883600000
 H          6.2088600000       -6.9301300000       -5.4751400000
 H          4.7442400000       -7.5909700000       -3.5799700000
 H          4.0449000000       -5.9073000000       -1.9063600000
