  32
        -51.43178237
 C         -4.5015415180        0.3020853756       -1.7956137798
 C         -3.6792973508        0.4425714137       -0.5496729571
 C         -3.7922414476        1.7676295861        0.1486777079
 C         -2.9323323218       -0.5600728050       -0.1019314976
 C         -2.0752666075       -0.5422709394        1.1365086784
 C         -0.6332067539       -0.4801044183        0.7171893168
 C          0.0385674498       -1.6035282335        0.3558987876
 O         -0.5325785610       -2.8139948897        0.3983744930
 C          1.4473814549       -1.5912252506       -0.0934663285
 O          1.9843567207       -2.6614839630       -0.3735156555
 C          2.1113446425       -0.2918460572       -0.1688277342
 C          3.4327675378       -0.2097040509       -0.5999081627
 C          4.0688112238        1.0187877193       -0.6746100714
 C          3.3878134853        2.1719542991       -0.3191569955
 C          2.0710901497        2.0988541751        0.1118582895
 C          1.4205414369        0.8740921759        0.1920176750
 C          0.0139500589        0.8276297933        0.6565379335
 O         -0.5720675216        1.8560230294        0.9843167859
 H         -4.4088527896       -0.6934754460       -2.2211667295
 H         -4.1800973301        1.0323370077       -2.5373622497
 H         -5.5498478814        0.4942255379       -1.5722066232
 H         -4.3861796738        1.6688657077        1.0566857636
 H         -4.2752091011        2.4964003119       -0.4961187671
 H         -2.8112822227        2.1471149019        0.4288757912
 H         -2.8842303191       -1.4861127452       -0.6594266513
 H         -2.2429044709       -1.4622126494        1.6993468550
 H         -2.3056951113        0.3216795055        1.7566520618
 H          0.1331688898       -3.4781511306        0.1186745733
 H          3.9417747399       -1.1223863104       -0.8710667118
 H          5.0925417935        1.0737779184       -1.0087570480
 H          3.8789684388        3.1303939633       -0.3755352064
 H          1.5250466544        2.9866401805        0.3938014365
