  32
 Etot=  -51.4249788566 g norm=  0.00060276
 C         -4.6264715259       -0.5871181808        1.3154100992
 C         -3.4083930678        0.0526385838        0.7232767093
 C         -2.4167420680        0.5706427760        1.7208001258
 C         -3.2313754731        0.1222695446       -0.5937563760
 C         -2.0543867888        0.7580092101       -1.2883532440
 C         -0.7076383846        0.2769035138       -0.8069357601
 C         -0.4295127738       -1.0427923473       -0.6451292270
 O         -1.3010556392       -2.0285692284       -0.8833615211
 C          0.8937921272       -1.5388929295       -0.1839340368
 O          1.1016159550       -2.7349040208       -0.0403912555
 C          1.9164415218       -0.5161677616        0.0770940013
 C          3.1843891623       -0.9092750007        0.4957483865
 C          4.1648350076        0.0366329745        0.7470105832
 C          3.8840997594        1.3838378703        0.5838594487
 C          2.6234912933        1.7850790873        0.1695035615
 C          1.6323554881        0.8451678921       -0.0885053128
 C          0.2962388997        1.3014274873       -0.5257331560
 O          0.0436616148        2.4990831003       -0.6408257107
 H         -5.1827599393        0.1424580057        1.9019310609
 H         -4.3328403823       -1.3941539679        1.9849435368
 H         -5.2811899228       -0.9865924114        0.5460801585
 H         -2.9297568571        0.9254475046        2.6114928056
 H         -1.8217521619        1.3838620999        1.3125621101
 H         -1.7369702797       -0.2275705915        2.0230995528
 H         -4.0089075569       -0.2541034454       -1.2449416784
 H         -2.0731975267        1.8436486988       -1.1468204846
 H         -2.1292460031        0.5765122906       -2.3639123148
 H         -2.1817009554       -1.6732121258       -1.1126669035
 H          3.3777620073       -1.9646311658        0.6163726286
 H          5.1446141631       -0.2787084727        1.0687457780
 H          4.6441874037        2.1236189648        0.7786903761
 H          2.3833591762        2.8296098795        0.0380922197
  32
 Etot=  -51.4250189189 g norm=  0.00023798
 C         -4.6980903063       -0.4437776734       -1.1194364490
 C         -3.4464338668        0.1317181301       -0.5313392067
 C         -2.5116296291        0.7578309246       -1.5215905574
 C         -3.1953711206        0.0602090976        0.7734535060
 C         -1.9807026678        0.6248063550        1.4645379662
 C         -0.6633044446        0.1934671024        0.8680606985
 C         -0.3999279902       -1.1031712574        0.5605184398
 O         -1.2600212851       -2.1099608894        0.7470398154
 C          0.8933862412       -1.5483964683       -0.0223757447
 O          1.0855383955       -2.7227649599       -0.3023290998
 C          1.9065870908       -0.5042557586       -0.2303043959
 C          3.1483269840       -0.8517712821       -0.7545626515
 C          4.1197056224        0.1148906456       -0.9573295259
 C          3.8562831741        1.4376301107       -0.6390709430
 C          2.6214713067        1.7938139400       -0.1194659248
 C          1.6394904703        0.8325123084        0.0904049035
 C          0.3298773154        1.2415165288        0.6400149299
 O          0.0894136484        2.4214611428        0.8881660779
 H         -4.4460530149       -1.1677043753       -1.8929269617
 H         -5.2872857147        0.3449588978       -1.5849002166
 H         -5.3063662040       -0.9316083881       -0.3630293677
 H         -1.8862276103        1.5185230101       -1.0610259086
 H         -3.0740793504        1.2121985908       -2.3337109256
 H         -1.8584566774       -0.0024066338       -1.9528344599
 H         -3.9350685989       -0.3888678965        1.4228190500
 H         -2.0004911690        0.3406154063        2.5199546895
 H         -2.0011562149        1.7190720778        1.4299302117
 H         -2.1238555778       -1.7833910605        1.0649693761
 H          3.3287185792       -1.8886614386       -0.9953344856
 H          5.0791568923       -0.1652887817       -1.3621367518
 H          4.6098300892        2.1932773816       -0.7945023435
 H          2.3950408652        2.8187756114        0.1335432924
  32
 Etot=  -51.4250239917 g norm=  0.00055111
 C         -4.6992058872       -0.4625705614       -1.0771988858
 C         -3.4507318971        0.1273712412       -0.4966870481
 C         -2.5206345856        0.7490647917       -1.4941848518
 C         -3.1969289847        0.0707338112        0.8082500239
 C         -1.9811092674        0.6453265331        1.4890096048
 C         -0.6660101895        0.1990887684        0.8979690090
 C         -0.4082979215       -1.1040988440        0.6141906934
 O         -1.2708897790       -2.1040944518        0.8226604288
 C          0.8812054139       -1.5647350121        0.0347699445
 O          1.0677973772       -2.7447163685       -0.2240111368
 C          1.8973543706       -0.5285805864       -0.1961583458
 C          3.1357594951       -0.8906740814       -0.7185228577
 C          4.1104494399        0.0681279142       -0.9417729279
 C          3.8535123052        1.3974655291       -0.6459702232
 C          2.6218056121        1.7681363133       -0.1287812855
 C          1.6364806498        0.8149104670        0.1012618220
 C          0.3298102044        1.2390552606        0.6469379380
 O          0.0941205607        2.4244264037        0.8728428776
 H         -5.3082173724       -0.9375912096       -0.3132185847
 H         -4.4426215327       -1.2010239634       -1.8353318065
 H         -5.2893195571        0.3148896476       -1.5601040809
 H         -3.0863316735        1.1897227730       -2.3116811361
 H         -1.8609703728       -0.0106909756       -1.9164089704
 H         -1.9015272533        1.5199947028       -1.0422318954
 H         -3.9332002237       -0.3748215977        1.4638655823
 H         -2.0004412784        0.3794267512        2.5491286450
 H         -1.9985935766        1.7387858055        1.4351047134
 H         -2.1326273286       -1.7687913714        1.1371470741
 H          3.3108053170       -1.9324609844       -0.9415734524
 H          5.0669988886       -0.2232634985       -1.3453896024
 H          4.6094815438        2.1472167968       -0.8176535137
 H          2.4004248936        2.7987096492        0.1058754769
  32
 Etot=  -51.4249856948 g norm=  0.00038312
 C         -4.6723318090       -0.6431893671        1.2038587252
 C         -3.4450670856        0.0276452002        0.6676407898
 C         -2.4805824717        0.5101062831        1.7084447704
 C         -3.2378129634        0.1547977570       -0.6405264885
 C         -2.0505172821        0.8308974333       -1.2767891451
 C         -0.7102860287        0.3148082290       -0.8127765655
 C         -0.4357424511       -1.0130896726       -0.7330053254
 O         -1.3055101844       -1.9809396780       -1.0408267466
 C          0.8830980662       -1.5402261647       -0.2928291643
 O          1.0840511743       -2.7432153280       -0.2127929805
 C          1.9105709578       -0.5386306232        0.0246982829
 C          3.1793825585       -0.9603229712        0.4119621109
 C          4.1648520937       -0.0343337010        0.7127461787
 C          3.8879631179        1.3212375106        0.6322435749
 C          2.6260692773        1.7506609288        0.2513582060
 C          1.6301620268        0.8310518504       -0.0565992470
 C          0.2931698278        1.3168239342       -0.4580493245
 O          0.0402071727        2.5196179992       -0.4864386830
 H         -5.2508005070        0.0612114809        1.8000828708
 H         -4.3896061152       -1.4710177387        1.8527898674
 H         -5.3026727345       -1.0204686739        0.4032400355
 H         -1.8075348246       -0.2979703343        1.9989983514
 H         -3.0171994257        0.8317930380        2.5978260728
 H         -1.8767385247        1.3381026788        1.3456007718
 H         -3.9964873147       -0.1993961315       -1.3255510427
 H         -2.0678624811        1.9046248213       -1.0629131151
 H         -2.1120357957        0.7223876470       -2.3628683194
 H         -2.1833984832       -1.6127616492       -1.2597759734
 H          3.3692878950       -2.0215886585        0.4692568291
 H          5.1453131585       -0.3714408301        1.0092757484
 H          4.6520280237        2.0456351852        0.8658621198
 H          2.3890040235        2.8019281380        0.1839867388
  32
 Etot=  -51.4250006599 g norm=  0.00036366
 C         -4.6658380515       -0.3422736804       -1.2045914699
 C         -3.4318923282        0.2033567765       -0.5540433907
 C         -2.4953312190        0.9237161982       -1.4766612865
 C         -3.1958066857        0.0302480920        0.7437957512
 C         -1.9935791759        0.5500547845        1.4900063867
 C         -0.6698757809        0.1604308825        0.8785396682
 C         -0.3966161804       -1.1176142691        0.5084825660
 O         -1.2507271813       -2.1377894750        0.6419334871
 C          0.9022321660       -1.5255329080       -0.0892870337
 O          1.1084865817       -2.6862786528       -0.4121782636
 C          1.9014013093       -0.4616206227       -0.2609811617
 C          3.1412579669       -0.7714131640       -0.8128268381
 C          4.0985345747        0.2149569805       -0.9853306073
 C          3.8227550050        1.5199133846       -0.6089926921
 C          2.5903669960        1.8382313404       -0.0596953675
 C          1.6224435542        0.8568136406        0.1202397624
 C          0.3154623142        1.2257811876        0.7036435037
 O          0.0704656636        2.3881330273        1.0209143297
 H         -5.2725305322       -0.9046049268       -0.5004450515
 H         -4.3909671379       -0.9925006023       -2.0337201462
 H         -5.2652781261        0.4722614481       -1.6084289123
 H         -1.8950221424        1.6595168497       -0.9475369351
 H         -3.0547906091        1.4280750694       -2.2608790918
 H         -1.8178326086        0.2139920028       -1.9537910326
 H         -3.9361689070       -0.4804004595        1.3449864059
 H         -2.0256796284        0.1937774647        2.5228770732
 H         -2.0157938767        1.6439594693        1.5292558608
 H         -2.1176670386       -1.8334693889        0.9719938962
 H          3.3314433413       -1.7950645160       -1.0986597109
 H          5.0560874504       -0.0357323528       -1.4131601312
 H          4.5647216580        2.2911205795       -0.7421827919
 H          2.3548903976        2.8485076248        0.2400205395
  32
 Etot=  -51.4317572346 g norm=  0.00065657
 C         -4.6335846660       -0.1205176778       -1.5885869253
 C         -3.7210117386        0.4533659066       -0.5464178449
 C         -3.6683404068        1.9536563877       -0.4963891203
 C         -3.0417266326       -0.3331536316        0.2802183231
 C         -2.1078693588        0.1224690572        1.3707181941
 C         -0.6932996916       -0.1321049234        0.9300466777
 C         -0.1420944231       -1.3690185871        1.0311300955
 O         -0.8117068572       -2.4005800079        1.5607758763
 C          1.2348024465       -1.6769223115        0.5881477023
 O          1.6611895690       -2.8196105639        0.7451968125
 C          2.0040486250       -0.5849107751       -0.0041363503
 C          3.3033873311       -0.8115119856       -0.4503469499
 C          4.0387053765        0.2185569508       -1.0138101036
 C          3.4794870444        1.4805247497       -1.1350073565
 C          2.1856974975        1.7149964649       -0.6921225073
 C          1.4367576573        0.6920479798       -0.1243669656
 C          0.0582317334        0.9730499946        0.3414044074
 O         -0.4205534359        2.0995546349        0.2393670796
 H         -5.6408925036        0.2712245870       -1.4556290465
 H         -4.6671460544       -1.2052541006       -1.5322305533
 H         -4.2922359906        0.1688140118       -2.5819725807
 H         -4.0926962043        2.3777473818       -1.4021983229
 H         -2.6448444403        2.3087838821       -0.3926346838
 H         -4.2405668226        2.3243043495        0.3536534730
 H         -3.1153254145       -1.4080965537        0.1817143525
 H         -2.3082385114       -0.4562786131        2.2742092460
 H         -2.2334176901        1.1843330734        1.5732608844
 H         -0.2225910775       -3.1850230455        1.5544950105
 H          3.7164490655       -1.8034993865       -0.3452438475
 H          5.0442370119        0.0348648119       -1.3567890768
 H          4.0478393164        2.2852289234       -1.5736345454
 H          1.7341794596        2.6922124957       -0.7769408776
  32
 Etot=  -51.4249775051 g norm=  0.00052149
 C         -4.5855967716       -0.2794852506        1.5107639500
 C         -3.3864403068        0.2347979423        0.7749635204
 C         -2.3952906567        0.9764147795        1.6202451601
 C         -3.2252214928        0.0189891801       -0.5280845227
 C         -2.0648969915        0.5057474621       -1.3585049865
 C         -0.7104669858        0.1363651352       -0.8048646870
 C         -0.4199769437       -1.1276201108       -0.4010982387
 O         -1.2831942696       -2.1476661267       -0.4496422101
 C          0.9080346430       -1.5173438633        0.1415612424
 O          1.1297550298       -2.6658581103        0.4965019815
 C          1.9163943457       -0.4509483035        0.2197229535
 C          3.1826887655       -0.7435245499        0.7184222983
 C          4.1492356532        0.2453705420        0.8024937006
 C          3.8566563101        1.5354457046        0.3892171721
 C          2.5979422932        1.8365266183       -0.1077558171
 C          1.6201328937        0.8526190254       -0.1978429290
 C          0.2844862720        1.2039288689       -0.7246210304
 O          0.0247348328        2.3541980040       -1.0727153388
 H         -5.2339566596       -0.8599263788        0.8604921499
 H         -5.1566932730        0.5526921727        1.9200510089
 H         -4.2688750512       -0.9043065344        2.3444889721
 H         -1.6959881384        0.2765982678        2.0803490247
 H         -2.9066448067        1.5089180114        2.4186040859
 H         -1.8217428419        1.6910170315        1.0353181600
 H         -4.0013814940       -0.5045832387       -1.0698609094
 H         -2.0886341113        1.5973638345       -1.4402254890
 H         -2.1535233256        0.1083453581       -2.3729987675
 H         -2.1663613202       -1.8489117694       -0.7398343830
 H          3.3855087422       -1.7557810635        1.0344710769
 H          5.1269766494        0.0081135264        1.1902544576
 H          4.6060340251        2.3084863951        0.4528726902
 H          2.3488070489        2.8352505869       -0.4340929020
  32
 Etot=  -51.4249816109 g norm=  0.00029621
 C         -4.6050159326       -0.2124129898        1.4852703545
 C         -3.4087710395        0.2746530325        0.7266875720
 C         -2.4390912670        1.0896923875        1.5280888963
 C         -3.2306021484       -0.0242275328       -0.5575033933
 C         -2.0698813260        0.4292351076       -1.4055177035
 C         -0.7154730055        0.0989412691       -0.8270506557
 C         -0.4174831801       -1.1376125399       -0.3502827654
 O         -1.2705057300       -2.1672952254       -0.3442251628
 C          0.9105191382       -1.4845277719        0.2216501332
 O          1.1360114122       -2.6062983360        0.6515772641
 C          1.9142963514       -0.4111387807        0.2322641021
 C          3.1833365766       -0.6673139305        0.7438160183
 C          4.1466020200        0.3281186349        0.7613876345
 C          3.8479293562        1.5885816834        0.2688233227
 C          2.5859632483        1.8539539202       -0.2399468655
 C          1.6115014375        0.8628955876       -0.2642072961
 C          0.2721209955        1.1762616361       -0.8049786422
 O          0.0042277961        2.3041505545       -1.2146982222
 H         -5.1937808137        0.6338697278        1.8362420954
 H         -4.2848694541       -0.7774238189        2.3593941532
 H         -5.2373993899       -0.8444599107        0.8682482868
 H         -2.9675183361        1.6676791628        2.2826378034
 H         -1.8706829977        1.7713801235        0.9004043295
 H         -1.7335654299        0.4352927990        2.0422920290
 H         -3.9915969162       -0.5969216487       -1.0706027133
 H         -2.1008500636        1.5152440672       -1.5406640401
 H         -2.1500205167       -0.0170514258       -2.3999622290
 H         -2.1528939288       -1.8990911761       -0.6643891540
 H          3.3915979642       -1.6573587614        1.1208601390
 H          5.1269857829        0.1188859505        1.1587188198
 H          4.5945345724        2.3666674035        0.2813019014
 H          2.3317326394        2.8294746504       -0.6268862425
  32
 Etot=  -51.4249772808 g norm=  0.00052728
 C         -4.6962367404       -0.6506706815        1.1435473369
 C         -3.4618357364        0.0224267470        0.6268917060
 C         -2.5012964543        0.4814488432        1.6818371494
 C         -3.2451810397        0.1689488183       -0.6778974084
 C         -2.0500412934        0.8467117316       -1.2974859871
 C         -0.7145405617        0.3284396249       -0.8223499971
 C         -0.4431420312       -0.9999021654       -0.7383121743
 O         -1.3117425479       -1.9667764298       -1.0526656667
 C          0.8700168168       -1.5286070170       -0.2834322402
 O          1.0656462161       -2.7318087387       -0.1920316230
 C          1.8992949737       -0.5284684593        0.0331435967
 C          3.1656718661       -0.9520650828        0.4261227265
 C          4.1528925960       -0.0275664471        0.7256392731
 C          3.8800179028        1.3283628121        0.6385533138
 C          2.6203565578        1.7597158162        0.2524275816
 C          1.6229243707        0.8415580437       -0.0547817686
 C          0.2885174936        1.3292621836       -0.4624959138
 O          0.0376616744        2.5325846512       -0.4930460254
 H         -5.2715425483        0.0439236738        1.7537185816
 H         -4.4223003500       -1.4951600244        1.7742836607
 H         -5.3267083120       -1.0044484976        0.3328169346
 H         -3.0422659350        0.7915168988        2.5727971293
 H         -1.8903250936        1.3119578421        1.3365762264
 H         -1.8350732870       -0.3355021928        1.9634888260
 H         -4.0017164263       -0.1696029423       -1.3731806728
 H         -2.0691059695        1.9196426341       -1.0791093744
 H         -2.1004922836        0.7431025233       -2.3846594969
 H         -2.1868922226       -1.5971007473       -1.2800216815
 H          3.3524122887       -2.0136431958        0.4883792261
 H          5.1316827795       -0.3661108551        1.0258303867
 H          4.6452065853        2.0515689132        0.8719902570
 H          2.3859287729        2.8113694362        0.1815895332
  32
 Etot=  -51.4250230006 g norm=  0.00024672
 C         -4.6980917087       -0.4937891669       -1.0744652793
 C         -3.4479391842        0.1011514748       -0.5027178477
 C         -2.5231786571        0.7180486977       -1.5080192436
 C         -3.1892461279        0.0540871169        0.8016280303
 C         -1.9743487485        0.6393679792        1.4749422541
 C         -0.6574461878        0.1953851880        0.8864247438
 C         -0.3921943715       -1.1083782953        0.6126616828
 O         -1.2501383474       -2.1113276692        0.8268324899
 C          0.9006760864       -1.5664437661        0.0387117254
 O          1.0908270378       -2.7460283065       -0.2194378246
 C          1.9163420273       -0.5282835372       -0.1859335850
 C          3.1627490239       -0.8894441324       -0.6895768509
 C          4.1367042853        0.0713977809       -0.9070914620
 C          3.8704242481        1.4020965753       -0.6260273969
 C          2.6306401021        1.7718682248       -0.1280369928
 C          1.6466315175        0.8162987202        0.0980623664
 C          0.3325514271        1.2391599582        0.6265515127
 O          0.0867603264        2.4258892750        0.8334901842
 H         -4.4444610099       -1.2261250328       -1.8393027195
 H         -5.2974926060        0.2830529362       -1.5471570333
 H         -5.2971962237       -0.9763193872       -0.3074936461
 H         -1.9020103516        1.4915062443       -1.0633509304
 H         -3.0932609755        1.1540425667       -2.3249860396
 H         -1.8656406549       -0.0438845802       -1.9294408672
 H         -3.9218667677       -0.3890798474        1.4628964584
 H         -1.9906613959        0.3816899909        2.5371922305
 H         -1.9973929700        1.7323338976        1.4122939289
 H         -2.1138861867       -1.7778589860        1.1375146361
 H          3.3450544950       -1.9322477356       -0.9016473648
 H          5.1000281446       -0.2193443224       -1.2947162526
 H          4.6256388066        2.1534246145       -0.7939399153
 H          2.4016941162        2.8031829300        0.0954457069
  32
 Etot=  -51.4249875083 g norm=  0.00035509
 C         -4.6569876219       -0.6693380523        1.1810682391
 C         -3.4301870111        0.0128597115        0.6583394605
 C         -2.4502449685        0.4454132930        1.7066332304
 C         -3.2362825759        0.1899037540       -0.6461113043
 C         -2.0497465227        0.8789510167       -1.2698563960
 C         -0.7092171006        0.3420178293       -0.8313819319
 C         -0.4411379372       -0.9891586705       -0.7970531336
 O         -1.3177067666       -1.9417712233       -1.1316017512
 C          0.8772706823       -1.5370313888       -0.3818331441
 O          1.0731371521       -2.7429469304       -0.3443840219
 C          1.9105158995       -0.5515347671       -0.0338180439
 C          3.1783715630       -0.9920882225        0.3353101389
 C          4.1684053218       -0.0816468212        0.6668276324
 C          3.8972940086        1.2770886460        0.6353006737
 C          2.6368661931        1.7251984299        0.2714596578
 C          1.6363534169        0.8213888529       -0.0669230391
 C          0.3009205656        1.3268691273       -0.4488748755
 O          0.0551483774        2.5315668097       -0.4405059292
 H         -5.2193849021        0.0123201913        1.8173496013
 H         -4.3741412460       -1.5288521074        1.7869806844
 H         -5.3023664500       -1.0031608226        0.3734718341
 H         -1.7796659249       -0.3783294108        1.9559268723
 H         -2.9742728851        0.7339388933        2.6147193023
 H         -1.8447463780        1.2836189533        1.3709651945
 H         -4.0058086428       -0.1302358448       -1.3358074555
 H         -2.0600539006        1.9457270153       -1.0231278045
 H         -2.1194244661        0.8038881359       -2.3582927995
 H         -2.1945135947       -1.5620444234       -1.3338691505
 H          3.3638987512       -2.0555444833        0.3540215941
 H          5.1480469313       -0.4333507846        0.9487344172
 H          4.6647338429        1.9894431287        0.8933630862
 H          2.4043365770        2.7792523685        0.2417311675
  32
 Etot=  -51.4250244763 g norm=  0.00047290
 C         -4.6828879936       -0.4497037872       -1.1297048443
 C         -3.4359659301        0.1341563017       -0.5398271027
 C         -2.5005269263        0.7603961680       -1.5292604516
 C         -3.1889188712        0.0704700657        0.7660149347
 C         -1.9770431443        0.6423346752        1.4562419116
 C         -0.6583335910        0.1984936922        0.8716726940
 C         -0.3958723332       -1.1047146552        0.5927352837
 O         -1.2580625168       -2.1058540399        0.7981775032
 C          0.8988520047       -1.5642752452        0.0243017475
 O          1.0907521977       -2.7446735066       -0.2281514329
 C          1.9137475767       -0.5260719149       -0.2036934824
 C          3.1571607789       -0.8867646185       -0.7149813197
 C          4.1308745970        0.0737853542       -0.9346492364
 C          3.8677555132        1.4036861663       -0.6472126682
 C          2.6310403332        1.7730373910       -0.1413449503
 C          1.6469230803        0.8178712378        0.0859219729
 C          0.3358387162        1.2405642998        0.6218692611
 O          0.0950855437        2.4262495058        0.8410553669
 H         -5.2878242714       -0.9435527207       -0.3746850299
 H         -4.4250371577       -1.1702596147       -1.9041615735
 H         -5.2776701676        0.3352577739       -1.5941742197
 H         -3.0618717611        1.2044415544       -2.3479572881
 H         -1.8385589773        0.0025723886       -1.9512104169
 H         -1.8840925522        1.5293685764       -1.0704198315
 H         -3.9287220072       -0.3782392877        1.4154241448
 H         -2.0028164423        0.3722443896        2.5151972296
 H         -1.9943581495        1.7359898531        1.4062019809
 H         -2.1220002824       -1.7715225639        1.1071151569
 H          3.3371169281       -1.9290177972       -0.9317820826
 H          5.0914853259       -0.2164662358       -1.3292227401
 H          4.6228564152        2.1547866751       -0.8166229253
 H          2.4046337087        2.8037790024        0.0871698304
  32
 Etot=  -51.4249908561 g norm=  0.00034382
 C         -4.6001222808       -0.2503269142        1.5014580534
 C         -3.3966368074        0.2492185480        0.7627276925
 C         -2.4070629859        1.0016657597        1.6002630919
 C         -3.2298503208        0.0106419150       -0.5356327676
 C         -2.0653740335        0.4807832886       -1.3695308458
 C         -0.7127251843        0.1272119968       -0.8015360752
 C         -0.4229019289       -1.1239747554       -0.3590886493
 O         -1.2845097792       -2.1463188861       -0.3809344106
 C          0.9024800710       -1.4954793448        0.2025443176
 O          1.1208460034       -2.6302554847        0.6010592726
 C          1.9123114123       -0.4284678017        0.2453120496
 C          3.1785441792       -0.7062397814        0.7524764135
 C          4.1470433206        0.2830234148        0.8016331815
 C          3.8565453552        1.5587694061        0.3449208749
 C          2.5976858676        1.8454218042       -0.1600308494
 C          1.6178805614        0.8609035325       -0.2153883066
 C          0.2816433976        1.1971410720       -0.7503184599
 O          0.0210853108        2.3373575901       -1.1295214427
 H         -5.2486347837       -0.8367531059        0.8567729642
 H         -5.1690982805        0.5894768693        1.8975255359
 H         -4.2888417461       -0.8651508781        2.3446065397
 H         -1.8292299420        1.7054681663        1.0064210524
 H         -1.7112985126        0.3074928129        2.0742188239
 H         -2.9202839190        1.5478563066        2.3881002373
 H         -4.0049612925       -0.5201643302       -1.0720159444
 H         -2.0908799623        1.5702742673       -1.4750508704
 H         -2.1480105647        0.0620196472       -2.3758875124
 H         -2.1664179005       -1.8583027698       -0.6857916622
 H          3.3796810703       -1.7072759477        1.1034778518
 H          5.1247957075        0.0573129349        1.1964402282
 H          4.6074813145        2.3319435808        0.3813540443
 H          2.3501485933        2.8328311657       -0.5202649360
  32
 Etot=  -51.4249803551 g norm=  0.00036541
 C         -4.6690177279       -0.5919465237        1.2248924041
 C         -3.4438218312        0.0645274693        0.6667250909
 C         -2.4810338858        0.5845373374        1.6908464615
 C         -3.2360121610        0.1475208775       -0.6449685149
 C         -2.0472440321        0.8012780620       -1.3010021596
 C         -0.7095532498        0.2934883937       -0.8203658071
 C         -0.4427633317       -1.0318736945       -0.6878180070
 O         -1.3144402977       -2.0079986182       -0.9622157681
 C          0.8699571648       -1.5479248553       -0.2167345013
 O          1.0618403440       -2.7476143784       -0.0827637211
 C          1.9023820353       -0.5405112789        0.0642222831
 C          3.1653527282       -0.9535236736        0.4789872722
 C          4.1560122171       -0.0221242974        0.7437620626
 C          3.8905395062        1.3302582288        0.5982271427
 C          2.6342231708        1.7512867607        0.1905035543
 C          1.6328487064        0.8260097405       -0.0805365646
 C          0.3006639810        1.3027802311       -0.5077200220
 O          0.0565593867        2.5049380040       -0.5902702836
 H         -4.3834048581       -1.4031122744        1.8929945080
 H         -5.3024787658       -0.9894742682        0.4370635810
 H         -5.2451664075        0.1267849165        1.8059042408
 H         -3.0194202318        0.9416737223        2.5655483302
 H         -1.8741366020        1.3965102459        1.2980585787
 H         -1.8105660955       -0.2131085605        2.0144924387
 H         -3.9933501698       -0.2313818386       -1.3185517019
 H         -2.0603389789        1.8807236151       -1.1174501851
 H         -2.1090213695        0.6641862751       -2.3836443402
 H         -2.1888439761       -1.6473315600       -1.2056584918
 H          3.3465569290       -2.0124591646        0.5858095198
 H          5.1317841266       -0.3524887364        1.0625303951
 H          4.6591788150        2.0587307232        0.8022292229
 H          2.4057190643        2.8001338306        0.0736301534
  32
 Etot=  -51.4249665418 g norm=  0.00040388
 C         -4.5908002224       -0.1733335285        1.5273149945
 C         -3.3935694774        0.2898861052        0.7556636535
 C         -2.4078200738        1.1006679752        1.5415343743
 C         -3.2280479219       -0.0269320936       -0.5260259214
 C         -2.0686884581        0.3998178109       -1.3897024215
 C         -0.7120417904        0.0866861752       -0.8076041906
 C         -0.4156096873       -1.1334846898       -0.2894752856
 O         -1.2747743832       -2.1569487738       -0.2401772806
 C          0.9159461064       -1.4670402610        0.2812527223
 O          1.1437815858       -2.5775966482        0.7383695304
 C          1.9210592181       -0.3951535780        0.2554168771
 C          3.1908848959       -0.6368998452        0.7719853111
 C          4.1548838273        0.3578994027        0.7583072970
 C          3.8566186729        1.6028837842        0.2276352644
 C          2.5943129374        1.8534120065       -0.2878387149
 C          1.6187339582        0.8631793167       -0.2799095424
 C          0.2789979880        1.1608067520       -0.8287893513
 O          0.0123576672        2.2744870722       -1.2764046028
 H         -5.2342197594       -0.8065249640        0.9229757499
 H         -5.1676628955        0.6844215900        1.8697594929
 H         -4.2718815791       -0.7296185543        2.4074372212
 H         -1.7028148327        0.4429080519        2.0521197643
 H         -2.9228087766        1.6875739155        2.2982634735
 H         -1.8399353410        1.7733609857        0.9036071118
 H         -4.0006437241       -0.5946875135       -1.0270935072
 H         -2.1000262620        1.4811171730       -1.5586305798
 H         -2.1522231256       -0.0776957446       -2.3695414521
 H         -2.1598711019       -1.8893718557       -0.5548212171
 H          3.3982280604       -1.6145771757        1.1804695826
 H          5.1355210499        0.1601670656        1.1608774938
 H          4.6042103316        2.3802002543        0.2145322733
 H          2.3406271600        2.8166038403       -0.7049208013
  32
 Etot=  -51.4249880272 g norm=  0.00032918
 C         -4.5770969480       -0.3792795963        1.5000304517
 C         -3.3789476840        0.1843347559        0.7997092946
 C         -2.3856241280        0.8651883524        1.6921792082
 C         -3.2193115780        0.0587596867       -0.5151715503
 C         -2.0594864507        0.6020103899       -1.3101573930
 C         -0.7043369421        0.1875813971       -0.7910105149
 C         -0.4168934180       -1.1027670908       -0.4787582559
 O         -1.2828980239       -2.1149376794       -0.5951473198
 C          0.9115152081       -1.5339098089        0.0310884989
 O          1.1263147778       -2.7030907241        0.3157131464
 C          1.9293809614       -0.4820671152        0.1636365842
 C          3.2013328154       -0.8159276566        0.6201632583
 C          4.1774357999        0.1582233720        0.7519265012
 C          3.8886418511        1.4748196911        0.4298131916
 C          2.6239056618        1.8173404380       -0.0229701900
 C          1.6367621651        0.8484418321       -0.1612171595
 C          0.2951877710        1.2431974586       -0.6398069414
 O          0.0348651735        2.4178713031       -0.8929749708
 H         -5.2301368155       -0.9072137413        0.8108739550
 H         -5.1434754389        0.4218462695        1.9725495697
 H         -4.2596475426       -1.0656834815        2.2835712647
 H         -1.8140657418        1.6195955437        1.1573365018
 H         -1.6845618171        0.1350016894        2.0993516300
 H         -2.8945043442        1.3396348282        2.5278381114
 H         -3.9965980001       -0.4253221694       -1.0912765592
 H         -2.0790188670        1.6966985512       -1.3083321458
 H         -2.1526317421        0.2838979820       -2.3517761500
 H         -2.1651727182       -1.7965696082       -0.8662524531
 H          3.4010602496       -1.8481403090        0.8656471423
 H          5.1599793634       -0.1112192011        1.1052060841
 H          4.6456249270        2.2363681252        0.5304708053
 H          2.3776297912        2.8372401753       -0.2783816983
  32
 Etot=  -51.4249793687 g norm=  0.00026469
 C         -4.5848352688       -0.5874315890        1.3687961088
 C         -3.3761921417        0.0529136136        0.7581048068
 C         -2.3719893239        0.5751193526        1.7408052659
 C         -3.2185159522        0.1212276005       -0.5612991773
 C         -2.0525519572        0.7585027676       -1.2731406586
 C         -0.6996611497        0.2749755092       -0.8119356705
 C         -0.4173768215       -1.0459626413       -0.6687718787
 O         -1.2888759758       -2.0306889173       -0.9116838789
 C          0.9104315564       -1.5447866487       -0.2236688811
 O          1.1218133353       -2.7419859337       -0.0962218010
 C          1.9324170273       -0.5229782280        0.0432130516
 C          3.2037890506       -0.9180620331        0.4495954573
 C          4.1834524851        0.0271005949        0.7066766594
 C          3.8986202142        1.3756152115        0.5616928415
 C          2.6347535546        1.7787461216        0.1593885262
 C          1.6443863375        0.8395998061       -0.1042495894
 C          0.3044902235        1.2982778417       -0.5274557358
 O          0.0490673858        2.4968578052       -0.6275420141
 H         -5.1375728325        0.1448598025        1.9552885443
 H         -4.2806877168       -1.3877097145        2.0416508660
 H         -5.2462958339       -0.9956502671        0.6099837190
 H         -1.6883153833       -0.2217595756        2.0378100298
 H         -2.8741169354        0.9334521902        2.6363523439
 H         -1.7825451541        1.3869989550        1.3222051113
 H         -4.0047493159       -0.2575284908       -1.2003139280
 H         -2.0684978434        1.8436585818       -1.1280763170
 H         -2.1440291444        0.5800061265       -2.3477619487
 H         -2.1719508404       -1.6753631452       -1.1302146514
 H          3.4004120410       -1.9742939815        0.5566528298
 H          5.1653098841       -0.2897391653        1.0201125117
 H          4.6580890414        2.1148168973        0.7611110028
 H          2.3915079018        2.8239804920        0.0411220217
  32
 Etot=  -51.4249619734 g norm=  0.00025579
 C         -4.6086357086       -0.1473536881        1.4801276064
 C         -3.4112448383        0.3135573693        0.7072398430
 C         -2.4347282442        1.1414558033        1.4869435816
 C         -3.2382293193       -0.0169549347       -0.5696897288
 C         -2.0754000437        0.4073477616       -1.4301252965
 C         -0.7237246055        0.0829913730       -0.8421585538
 C         -0.4317516415       -1.1469599104       -0.3451249811
 O         -1.2878613656       -2.1739603950       -0.3284929517
 C          0.8919272249       -1.4887029692        0.2394317610
 O          1.1141824496       -2.6064382442        0.6815080200
 C          1.8957429795       -0.4153948679        0.2471495712
 C          3.1583517394       -0.6645238648        0.7776696696
 C          4.1212064592        0.3312921712        0.7943901089
 C          3.8291388906        1.5846727560        0.2802196997
 C          2.5740001081        1.8426079159       -0.2488994480
 C          1.5995172778        0.8515993267       -0.2708988012
 C          0.2665927023        1.1578450941       -0.8314139907
 O          0.0054604339        2.2787369724       -1.2640614641
 H         -4.2899466531       -0.6831758425        2.3729411423
 H         -5.2415233980       -0.7986885013        0.8840533435
 H         -5.1965878974        0.7109149145        1.8021136547
 H         -2.9573706639        1.7365648332        2.2320264788
 H         -1.8668983375        1.8082561832        0.8429572763
 H         -1.7289424326        0.4953137427        2.0110668987
 H         -4.0041460923       -0.5966997810       -1.0672756021
 H         -2.0994910780        1.4897630649       -1.5923192523
 H         -2.1590206679       -0.0635132708       -2.4128620510
 H         -2.1675976570       -1.9090662623       -0.6578475473
 H          3.3613197359       -1.6488411289        1.1721823512
 H          5.0966736876        0.1275626775        1.2064123354
 H          4.5762491319        2.3623140445        0.2896359932
 H          2.3248850861        2.8125205000       -0.6529268888
  32
 Etot=  -51.4249818240 g norm=  0.00022355
 C         -4.6879152021       -0.6794151479        1.1272440539
 C         -3.4527754344        0.0074873529        0.6310693328
 C         -2.4778308575        0.4059608659        1.6973828263
 C         -3.2484246873        0.2167361923       -0.6671195990
 C         -2.0538200508        0.9141199668       -1.2656949252
 C         -0.7190867675        0.3645952009       -0.8253462948
 C         -0.4555501135       -0.9679122279       -0.8130478714
 O         -1.3314371037       -1.9111584844       -1.1751892298
 C          0.8556304836       -1.5279828006       -0.3912187613
 O          1.0457348656       -2.7352625971       -0.3692198382
 C          1.8894228702       -0.5523652993       -0.0177447561
 C          3.1521244212       -1.0040153530        0.3554880220
 C          4.1430393429       -0.1029443816        0.7095881845
 C          3.8777267315        1.2572169684        0.6967473489
 C          2.6220409633        1.7162817407        0.3300328916
 C          1.6208584417        0.8219970742       -0.0310389778
 C          0.2906534568        1.3389567914       -0.4156218531
 O          0.0483718756        2.5440875591       -0.3865143654
 H         -5.3281154850       -0.9904339912        0.3065863147
 H         -5.2519051750       -0.0092548123        1.7743253564
 H         -4.4150233287       -1.5540722168        1.7156208123
 H         -1.8144507078       -0.4285099974        1.9299151731
 H         -3.0068497464        0.6742785499        2.6088012328
 H         -1.8644045159        1.2486077100        1.3879777851
 H         -4.0151231513       -0.0805708455       -1.3698949816
 H         -2.0635233221        1.9758851591       -0.9980100050
 H         -2.1136109416        0.8609290260       -2.3560230395
 H         -2.2043607844       -1.5241923802       -1.3806150618
 H          3.3330951871       -2.0684724165        0.3593977961
 H          5.1186843548       -0.4629954747        0.9947669590
 H          4.6459221276        1.9621481780        0.9719304949
 H          2.3938971983        2.7716610997        0.3152045057
  32
 Etot=  -51.4249796123 g norm=  0.00022090
 C         -4.6346293511       -0.3250292898        1.4138536294
 C         -3.4275050807        0.2159537718        0.7112966695
 C         -2.4673737763        0.9634644710        1.5864180989
 C         -3.2329964954        0.0174765498       -0.5896881442
 C         -2.0601658658        0.5318989745       -1.3848111098
 C         -0.7140902523        0.1477094021       -0.8200444322
 C         -0.4256283695       -1.1283536965       -0.4546933891
 O         -1.2839359073       -2.1491764610       -0.5497372601
 C          0.8968430173       -1.5332198852        0.0909193804
 O          1.1166431539       -2.6922496447        0.4108624255
 C          1.9027001091       -0.4688845014        0.2136277427
 C          3.1661980922       -0.7770584184        0.7099291529
 C          4.1305797696        0.2095834638        0.8347027926
 C          3.8382924052        1.5130939907        0.4659359728
 C          2.5822380713        1.8298198703       -0.0278949232
 C          1.6070210061        0.8481124484       -0.1598979143
 C          0.2752280726        1.2150128973       -0.6858135938
 O          0.0144079693        2.3773119753       -0.9903613390
 H         -4.3275345208       -0.9525335517        2.2490317783
 H         -5.2575090497       -0.9096428800        0.7429671799
 H         -5.2290215476        0.4936297060        1.8167911443
 H         -1.7707136133        0.2690848477        2.0584936144
 H         -3.0050597903        1.4834141695        2.3755072836
 H         -1.8888892412        1.6898532975        1.0213326810
 H         -3.9886702064       -0.5113095507       -1.1552475806
 H         -2.0845667422        1.6253425155       -1.4323022974
 H         -2.1301292155        0.1664898946       -2.4125790245
 H         -2.1630040682       -1.8458455552       -0.8470313102
 H          3.3687188828       -1.7995490934        0.9915147171
 H          5.1069046756       -0.0401256989        1.2183831275
 H          4.5859663220        2.2843339154        0.5616571699
 H          2.3334344049        2.8391777013       -0.3198176476
  32
 Etot=  -51.4249724278 g norm=  0.00023861
 C         -4.5643598828       -0.3418642789        1.5417904201
 C         -3.3722028799        0.1999937424        0.8146038700
 C         -2.3798626857        0.9222641250        1.6750729026
 C         -3.2162103222        0.0203683873       -0.4943574070
 C         -2.0619967444        0.5346081008       -1.3164580595
 C         -0.7026503885        0.1569155784       -0.7807685518
 C         -0.4056198562       -1.1140067886       -0.4047014238
 O         -1.2650100999       -2.1364472105       -0.4687698757
 C          0.9261745246       -1.5093831292        0.1244285649
 O          1.1495434255       -2.6609433930        0.4674120511
 C          1.9365216740       -0.4450515248        0.2031593671
 C          3.2105291175       -0.7461279133        0.6762905628
 C          4.1793881849        0.2405407475        0.7591554688
 C          3.8814065144        1.5369739613        0.3704496249
 C          2.6147735962        1.8466937584       -0.1003121442
 C          1.6346773416        0.8649363182       -0.1893554603
 C          0.2903581065        1.2253008414       -0.6870519723
 O          0.0229604321        2.3828598650       -1.0036917716
 H         -5.2183488846       -0.8980586898        0.8760375531
 H         -5.1318145471        0.4740710424        1.9869779883
 H         -4.2397936800       -0.9973069413        2.3487277701
 H         -1.8110084857        1.6539845273        1.1067851581
 H         -1.6763909622        0.2128699359        2.1140489673
 H         -2.8898805555        1.4319202376        2.4890940636
 H         -3.9932006883       -0.4910254054       -1.0467266854
 H         -2.0906103069        1.6279085084       -1.3672592854
 H         -2.1539621396        0.1659095440       -2.3415122585
 H         -2.1502372660       -1.8371270705       -0.7521285466
 H          3.4176583322       -1.7632521962        0.9731812719
 H          5.1631755000       -0.0032126279        1.1274225064
 H          4.6329119693        2.3081593755        0.4324829769
 H          2.3610897411        2.8506147105       -0.4067156595
  32
 Etot=  -51.4249694713 g norm=  0.00053825
 C         -4.5630870991       -0.1882171673        1.5574905026
 C         -3.3770511842        0.2894402632        0.7770779182
 C         -2.3888671133        1.0991292583        1.5611167759
 C         -3.2237010834       -0.0118528911       -0.5094666825
 C         -2.0739449010        0.4311341581       -1.3783545263
 C         -0.7142612123        0.0929043466       -0.8170566424
 C         -0.4161840149       -1.1482815128       -0.3526131841
 O         -1.2720688293       -2.1756200019       -0.3497300518
 C          0.9140804007       -1.5027814832        0.2090563139
 O          1.1413030273       -2.6300472144        0.6236484547
 C          1.9172361402       -0.4289370327        0.2312214046
 C          3.1847740801       -0.6886843900        0.7445836908
 C          4.1469752175        0.3074657416        0.7748609630
 C          3.8494094422        1.5715929472        0.2910832936
 C          2.5891548213        1.8403037408       -0.2202073410
 C          1.6151172095        0.8491639926       -0.2551653864
 C          0.2766808533        1.1669994428       -0.7956323439
 O          0.0112727410        2.2964497363       -1.2026683543
 H         -4.2315754004       -0.7507098667        2.4290607755
 H         -5.2087016178       -0.8200338574        0.9541481644
 H         -5.1421332931        0.6624471758        1.9141667345
 H         -1.8242940259        1.7743333941        0.9233012654
 H         -1.6817596096        0.4405266597        2.0675798272
 H         -2.9015289549        1.6840701795        2.3211122215
 H         -3.9969652262       -0.5813690140       -1.0075262082
 H         -2.0998005787        1.5168965707       -1.5166612639
 H         -2.1723212447       -0.0181450857       -2.3698540808
 H         -2.1552582071       -1.9029714921       -0.6629944903
 H          3.3915250541       -1.6810180038        1.1162623007
 H          5.1262000721        0.0955757188        1.1738944257
 H          4.5955252939        2.3499376278        0.3124272774
 H          2.3359708289        2.8186286115       -0.6008510539
  32
 Etot=  -51.4249715292 g norm=  0.00037230
 C         -4.5955850697       -0.1956260633        1.4863702696
 C         -3.4030844125        0.2818242327        0.7158068585
 C         -2.4324377998        1.1118057760        1.5006466630
 C         -3.2288704788       -0.0370818764       -0.5639125627
 C         -2.0709941711        0.4043805113       -1.4221668476
 C         -0.7156301680        0.0814025018       -0.8416836948
 C         -0.4152477315       -1.1507620321       -0.3552691874
 O         -1.2650026524       -2.1830756263       -0.3437816738
 C          0.9120631595       -1.4891715804        0.2232653084
 O          1.1404992895       -2.6077253227        0.6600715740
 C          1.9116138556       -0.4118991720        0.2316454798
 C          3.1784452944       -0.6591129141        0.7529611365
 C          4.1375071502        0.3404163676        0.7692224414
 C          3.8371584139        1.5956309348        0.2644203767
 C          2.5775878931        1.8518343084       -0.2548672504
 C          1.6070390923        0.8569030766       -0.2769243045
 C          0.2695950834        1.1610096072       -0.8276627977
 O          0.0008496359        2.2838393174       -1.2504459709
 H         -4.2711114972       -0.7423512757        2.3704073927
 H         -5.2270511090       -0.8418702351        0.8832644126
 H         -5.1868443355        0.6549234349        1.8224117848
 H         -1.7228815784        0.4674896094        2.0218701958
 H         -2.9595849273        1.6994893736        2.2484597003
 H         -1.8686438197        1.7857186003        0.8605729619
 H         -3.9900147595       -0.6202500685       -1.0648571348
 H         -2.1019493208        1.4884765482       -1.5715480910
 H         -2.1542684811       -0.0549662909       -2.4102850045
 H         -2.1469378811       -1.9218159819       -0.6700355619
 H          3.3876986022       -1.6449306221        1.1403359270
 H          5.1159244575        0.1384903876        1.1750737598
 H          4.5809182120        2.3764972663        0.2746131259
 H          2.3219841612        2.8231574875       -0.6513562726
  32
 Etot=  -51.4250037513 g norm=  0.00021389
 C         -4.6842590785       -0.3915508745        1.2448943625
 C         -3.4581426680        0.1765211454        0.5987867923
 C         -2.5045404233        0.8543435092        1.5356138809
 C         -3.2427769220        0.0577928768       -0.7088605454
 C         -2.0516305313        0.6072002314       -1.4512598482
 C         -0.7175649285        0.1867474401       -0.8842440489
 C         -0.4445360002       -1.1052103945       -0.5657332383
 O         -1.3085989581       -2.1148562815       -0.7135263377
 C          0.8652673850       -1.5416440036       -0.0136247878
 O          1.0660250300       -2.7116313704        0.2776715776
 C          1.8828857977       -0.4941973694        0.1507727591
 C          3.1401383643       -0.8341987169        0.6420876120
 C          4.1156313048        0.1358655945        0.8047336998
 C          3.8405397179        1.4546597790        0.4795885217
 C          2.5903648321        1.8033043630       -0.0076744034
 C          1.6042863812        0.8383856250       -0.1777476520
 C          0.2786935215        1.2392664503       -0.6943175797
 O          0.0289338696        2.4160367255       -0.9481770303
 H         -5.3049020340       -0.9196320982        0.5265222218
 H         -5.2729580607        0.4072703471        1.6935692373
 H         -4.3998624890       -1.0788596179        2.0402092883
 H         -3.0497380357        1.3309060809        2.3468435306
 H         -1.9064007665        1.6064269618        1.0272495734
 H         -1.8257437549        0.1219914008        1.9749603987
 H         -3.9945993702       -0.4235795623       -1.3198413719
 H         -2.0704002487        1.7019141820       -1.4399411051
 H         -2.1033923719        0.2991885972       -2.4987946021
 H         -2.1808760230       -1.7934019058       -1.0125388631
 H          3.3291912986       -1.8680278554        0.8893846591
 H          5.0870820759       -0.1383025164        1.1842301279
 H          4.5966327600        2.2133355254        0.6052375735
 H          2.3546016221        2.8251018187       -0.2652722424
  32
 Etot=  -51.4250221251 g norm=  0.00022082
 C         -4.7444097545       -0.4844081869       -0.9933707840
 C         -3.4817759149        0.1065644863       -0.4457736144
 C         -2.5599333626        0.6933611175       -1.4716837960
 C         -3.2105365385        0.0796045303        0.8567393458
 C         -1.9833059450        0.6626002002        1.5091457207
 C         -0.6749834948        0.2061844274        0.9110620316
 C         -0.4216976602       -1.1005892845        0.6401010513
 O         -1.2859338503       -2.0960255724        0.8642603220
 C          0.8634733438       -1.5705480810        0.0587765631
 O          1.0433839055       -2.7526179641       -0.1954081790
 C          1.8850876847       -0.5408464847       -0.1779370118
 C          3.1247276014       -0.9131564781       -0.6900760948
 C          4.1043735233        0.0394752720       -0.9181524152
 C          3.8507063974        1.3730237918       -0.6389650335
 C          2.6176849713        1.7539041290       -0.1324707974
 C          1.6280136336        0.8067252200        0.1038761057
 C          0.3213021233        1.2412380530        0.6409138191
 O          0.0865055065        2.4304342451        0.8468640329
 H         -5.3459835851       -0.9359675632       -0.2096783483
 H         -4.5069978226       -1.2421462966       -1.7384601743
 H         -5.3343132889        0.2880013467       -1.4842539340
 H         -3.1329784295        1.1214545808       -2.2906632252
 H         -1.9158623608       -0.0841133886       -1.8856978799
 H         -1.9248488564        1.4669056670       -1.0470211435
 H         -3.9419883765       -0.3426602678        1.5328226376
 H         -1.9888801383        0.4147593944        2.5739123838
 H         -2.0008217915        1.7550703580        1.4372372261
 H         -2.1453360183       -1.7538008786        1.1783926620
 H          3.2970443831       -1.9578429031       -0.9012317207
 H          5.0623668175       -0.2600263391       -1.3122960240
 H          4.6107068216        2.1178853947       -0.8139107274
 H          2.3986117250        2.7877259603        0.0893308131
  32
 Etot=  -51.4249915157 g norm=  0.00031812
 C         -4.6342791624       -0.3074822137       -1.2971240729
 C         -3.4052078917        0.2220154274       -0.6243144397
 C         -2.4578271391        0.9565796065       -1.5242293965
 C         -3.1824937062        0.0237395883        0.6722915972
 C         -1.9858513359        0.5250251472        1.4401776861
 C         -0.6581592735        0.1479802041        0.8297461818
 C         -0.3826320313       -1.1229475434        0.4373801360
 O         -1.2376194363       -2.1451576999        0.5476868281
 C          0.9193496203       -1.5195147809       -0.1610599507
 O          1.1304669268       -2.6754611309       -0.4981905978
 C          1.9153050610       -0.4499182792       -0.3168845745
 C          3.1544406199       -0.7470522331       -0.8771096447
 C          4.1083300628        0.2447877988       -1.0362234640
 C          3.8303121805        1.5424079010       -0.6368865893
 C          2.5989654866        1.8479665397       -0.0780807015
 C          1.6339911386        0.8611262177        0.0874882442
 C          0.3273117618        1.2168667391        0.6797186208
 O          0.0821568794        2.3718217856        1.0228437849
 H         -4.3534570684       -0.9436840936       -2.1351222004
 H         -5.2268159553        0.5163984775       -1.6921219529
 H         -5.2499360642       -0.8801526086       -0.6093212254
 H         -1.8611238727        1.6810394494       -0.9757612924
 H         -3.0081916407        1.4766862371       -2.3046959125
 H         -1.7771750875        0.2537840075       -2.0073051194
 H         -3.9305813498       -0.4953355556        1.2565446395
 H         -2.0264963040        0.1449185872        2.4641977997
 H         -2.0074703610        1.6177611102        1.5044779582
 H         -2.1065997555       -1.8459557027        0.8771118479
 H          3.3462393636       -1.7650162487       -1.1814864835
 H          5.0650928393        0.0039442714       -1.4712075934
 H          4.5699409551        2.3177457642       -0.7589847062
 H          2.3617998808        2.8524443600        0.2394560020
  32
 Etot=  -51.4239678711 g norm=  0.00031950
 C         -4.5499439096        0.3742282238       -1.7292249019
 C         -3.6687327999        0.7124635796       -0.5650531620
 C         -3.6311826627        2.1659287509       -0.1894809085
 C         -2.9969821176       -0.2311915590        0.0852160983
 C         -2.0847634926       -0.0078712549        1.2642148725
 C         -0.6559838048       -0.2412548677        0.8391085254
 C         -0.1190379226       -1.4860281853        0.7555723206
 O         -0.7683251543       -2.6140801894        1.0699716557
 C          1.2771984266       -1.7354746561        0.3094472019
 O          1.7336644609       -2.8691522265        0.2785386895
 C          2.0560724145       -0.5521637977       -0.0803149781
 C          3.3657395681       -0.7125832981       -0.5242003858
 C          4.1191518158        0.3878508546       -0.8985835720
 C          3.5682865465        1.6579054643       -0.8328630422
 C          2.2655534432        1.8276940317       -0.3904541225
 C          1.4996214379        0.7312242522       -0.0111752567
 C          0.1146888792        0.9420228782        0.4603637114
 O         -0.3610126223        2.0722349479        0.5344151579
 H         -4.5682159033       -0.6958221259       -1.9182372916
 H         -4.1921050912        0.8814782403       -2.6243922382
 H         -5.5657756095        0.7163577414       -1.5374280824
 H         -2.6073024801        2.5053237776       -0.0424793847
 H         -4.1787710521        2.3347891770        0.7370321305
 H         -4.0870537493        2.7703581033       -0.9684031914
 H         -3.0604895580       -1.2543650139       -0.2618124652
 H         -2.3605342653       -0.6747938715        2.0850789295
 H         -2.1698602597        1.0187949845        1.6158256225
 H         -1.6687931245       -2.4386845111        1.3930207280
 H          3.7715756787       -1.7122226344       -0.5665657432
 H          5.1328345960        0.2527369653       -1.2406053558
 H          4.1509577291        2.5173685468       -1.1240144694
 H          1.8184217758        2.8087271504       -0.3299972520
  32
 Etot=  -51.4249747443 g norm=  0.00029593
 C         -4.6895776071       -0.6051542952        1.1698917282
 C         -3.4583726965        0.0523120458        0.6261902582
 C         -2.5034959788        0.5645076986        1.6615054677
 C         -3.2391723611        0.1427533795       -0.6831872529
 C         -2.0459427144        0.8010939665       -1.3262068882
 C         -0.7103945057        0.2985698567       -0.8346316376
 C         -0.4396302524       -1.0255257999       -0.6979699776
 O         -1.3060448366       -2.0051877153       -0.9765895985
 C          0.8713397070       -1.5358837289       -0.2158529219
 O          1.0641269330       -2.7341618360       -0.0706184697
 C          1.9016443277       -0.5248121775        0.0597622938
 C          3.1665624713       -0.9328543203        0.4735001691
 C          4.1553204449        0.0022133162        0.7325899979
 C          3.8857337726        1.3533793721        0.5832406057
 C          2.6272898018        1.7695383442        0.1771264361
 C          1.6280933405        0.8405058190       -0.0891238183
 C          0.2939070284        1.3120244604       -0.5159414523
 O          0.0441187488        2.5132947083       -0.5954097396
 H         -4.4113391667       -1.4177378855        1.8394916196
 H         -5.3147918110       -1.0008709145        0.3745989679
 H         -5.2715614459        0.1126511810        1.7460516694
 H         -1.8939364327        1.3797728514        1.2797781990
 H         -1.8353830103       -0.2356182733        1.9836666975
 H         -3.0485146954        0.9144162531        2.5349665206
 H         -3.9906437283       -0.2322629433       -1.3652159205
 H         -2.0650495549        1.8802903271       -1.1417732130
 H         -2.0968854931        0.6648829320       -2.4095131853
 H         -2.1798846645       -1.6475769625       -1.2263691158
 H          3.3511512265       -1.9909239596        0.5835183231
 H          5.1328146906       -0.3244300910        1.0498402645
 H          4.6527607967        2.0847261513        0.7829825820
 H          2.3953046007        2.8174120522        0.0580197044
  32
 Etot=  -51.4250056054 g norm=  0.00032584
 C         -4.7333662838       -0.3223814403       -1.0813380529
 C         -3.4844972064        0.2057726998       -0.4448702550
 C         -2.5620901370        0.9371227710       -1.3727592011
 C         -3.2250978687        0.0083344015        0.8451890322
 C         -2.0073466992        0.5084927433        1.5796205077
 C         -0.6958511185        0.1415659486        0.9294180302
 C         -0.4320436727       -1.1212541270        0.5042195489
 O         -1.2860032117       -2.1444008521        0.6137843159
 C          0.8532050329       -1.5060942722       -0.1362916149
 O          1.0474325775       -2.6511545292       -0.5173534998
 C          1.8546345830       -0.4395426333       -0.2760900574
 C          3.0856562231       -0.7303149907       -0.8572355726
 C          4.0451921810        0.2586645740       -0.9999227717
 C          3.7804506072        1.5472674944       -0.5640198063
 C          2.5566698785        1.8467580728        0.0143193215
 C          1.5865725166        0.8624694209        0.1646512654
 C          0.2884177263        1.2116199529        0.7791037167
 O          0.0493387422        2.3621263256        1.1409943642
 H         -5.3294403631       -0.8942408052       -0.3757309971
 H         -4.4775563963       -0.9590056167       -1.9270110309
 H         -5.3361110111        0.5021671256       -1.4591338577
 H         -1.9004364230        0.2314850828       -1.8776205034
 H         -1.9450026321        1.6580749072       -0.8423555616
 H         -3.1340012586        1.4604785848       -2.1353336133
 H         -3.9574436694       -0.5079287818        1.4514575745
 H         -2.0165756443        0.1209869852        2.6017670741
 H         -2.0312127871        1.6006603111        1.6529861537
 H         -2.1475316675       -1.8487611742        0.9663912729
 H          3.2669484074       -1.7411618628       -1.1904290726
 H          4.9960222258        0.0225144554       -1.4504331337
 H          4.5246684317        2.3202085893       -0.6726300236
 H          2.3294210731        2.8443934311        0.3593861078
  32
 Etot=  -51.4249722962 g norm=  0.00040881
 C         -4.7329055529       -0.6095514180        1.0598212600
 C         -3.4933429437        0.0516216934        0.5406772338
 C         -2.5560020211        0.5577357702        1.5950051676
 C         -3.2525706894        0.1501753092       -0.7643451984
 C         -2.0485458232        0.8121085889       -1.3832850876
 C         -0.7213973601        0.3045380854       -0.8742199063
 C         -0.4545134385       -1.0210338256       -0.7447704981
 O         -1.3180320642       -1.9968099293       -1.0448645892
 C          0.8484934319       -1.5373796380       -0.2477820416
 O          1.0377481459       -2.7371357821       -0.1107987343
 C          1.8754532125       -0.5301066890        0.0531082159
 C          3.1335614105       -0.9435584134        0.4819090693
 C          4.1192138494       -0.0121101700        0.7650771721
 C          3.8529661944        1.3407341647        0.6254237666
 C          2.6012267769        1.7621502963        0.2042826636
 C          1.6054678564        0.8368371958       -0.0866838857
 C          0.2785663328        1.3138672160       -0.5297273446
 O          0.0317572230        2.5161064810       -0.6030536864
 H         -5.3248436544        0.1044159612        1.6305341728
 H         -4.4653762186       -1.4264336272        1.7284387615
 H         -5.3445991124       -1.0000878833        0.2517031777
 H         -1.9417987859        1.3764815437        1.2284869310
 H         -1.8919633811       -0.2437572339        1.9224298815
 H         -3.1154434506        0.9009805841        2.4620090468
 H         -3.9926764191       -0.2204382838       -1.4610562722
 H         -2.0693244435        1.8898983377       -1.1910421062
 H         -2.0824747355        0.6837470666       -2.4682802946
 H         -2.1874474669       -1.6355102938       -1.3047753657
 H          3.3154744208       -2.0029452189        0.5839567798
 H          5.0914849039       -0.3428981727        1.0943325892
 H          4.6175128040        2.0691629950        0.8436658945
 H          2.3720505277        2.8113545699        0.0922628845
  32
 Etot=  -51.4237024775 g norm=  0.00025861
 C         -5.0960101272       -0.6077148940        1.2414331465
 C         -4.1957533951        0.0795025092        0.2588878151
 C         -4.8812589443        0.5440557956       -0.9906488106
 C         -2.9063659055        0.2701606199        0.5274930210
 C         -1.9075201174        0.9948182602       -0.3315231535
 C         -0.5183802792        0.4200615544       -0.2271242097
 C         -0.2813720767       -0.9090694214       -0.3781693951
 O         -1.2322052531       -1.8170870964       -0.6232808045
 C          1.0811382050       -1.5005303715       -0.2988795792
 O          1.2551244526       -2.7006588968       -0.4505068071
 C          2.1819805178       -0.5618902346       -0.0393964405
 C          3.4846224610       -1.0450505511        0.0488324161
 C          4.5387524638       -0.1800652025        0.2927694527
 C          4.2988469910        1.1759563904        0.4491492382
 C          3.0050704529        1.6663742477        0.3639248361
 C          1.9388820528        0.8082590397        0.1206642123
 C          0.5694448332        1.3591291325        0.0374142276
 O          0.3602623806        2.5612943423        0.1854702638
 H         -5.5080902741       -1.5162321743        0.8047232913
 H         -5.9307791431        0.0428731839        1.4963828686
 H         -4.5647184972       -0.8681736295        2.1526006482
 H         -5.3349407674        1.5190000368       -0.8164077692
 H         -5.6737346297       -0.1482058472       -1.2641303308
 H         -4.1971749360        0.6415744826       -1.8286066049
 H         -2.5136077410       -0.0665474942        1.4790752048
 H         -1.8446059342        2.0419027316       -0.0173456872
 H         -2.2197546537        0.9955601771       -1.3792129132
 H         -2.1226013266       -1.4153915168       -0.5900016843
 H          3.6453686602       -2.1052685003       -0.0764413305
 H          5.5439959608       -0.5646317566        0.3589412315
 H          5.1164847437        1.8529953492        0.6394923208
 H          2.7956399202        2.7187349346        0.4853964465
  32
 Etot=  -51.4239513697 g norm=  0.00051545
 C         -4.5308086883        0.2875785174       -1.7406753269
 C         -3.6351057032        0.6926542177       -0.6092399089
 C         -3.5634143714        2.1692752250       -0.3462276824
 C         -2.9827129146       -0.2147729127        0.1088194326
 C         -2.0594806141        0.0744697706        1.2649113129
 C         -0.6356689369       -0.1958001530        0.8442462527
 C         -0.1135363649       -1.4493544941        0.8156725997
 O         -0.7706445906       -2.5533677647        1.1929355395
 C          1.2722244530       -1.7375956980        0.3598250844
 O          1.7105821285       -2.8787512918        0.3657990364
 C          2.0641092219       -0.5825186669       -0.0843530647
 C          3.3665685555       -0.7795458091       -0.5346748191
 C          4.1326989103        0.2945325545       -0.9566990121
 C          3.6021464263        1.5746455167       -0.9321203165
 C          2.3059784185        1.7805881615       -0.4860020279
 C          1.5271853531        0.7107352991       -0.0597136712
 C          0.1479127174        0.9595396774        0.4095648047
 O         -0.3125964312        2.0982302267        0.4370645924
 H         -5.5361324595        0.6712305910       -1.5737214875
 H         -4.5787785692       -0.7931590898       -1.8446231347
 H         -4.1640811258        0.7125365385       -2.6743422601
 H         -3.9834371773        2.7231232588       -1.1811291814
 H         -2.5345744449        2.4929298447       -0.1990161803
 H         -4.1287474506        2.4240549124        0.5496330723
 H         -3.0733419429       -1.2594724283       -0.1594065178
 H         -2.3345057358       -0.5381094766        2.1270861239
 H         -2.1342249544        1.1214316177        1.5534255504
 H         -1.6608690740       -2.3518663651        1.5287563106
 H          3.7571074506       -1.7861220617       -0.5432203592
 H          5.1405548227        0.1312204680       -1.3037725320
 H          4.1949348375        2.4136898161       -1.2604075130
 H          1.8737658434        2.7697512008       -0.4591970034
  32
 Etot=  -51.4249713350 g norm=  0.00021599
 C         -4.6126468955       -0.1194393687        1.4891703609
 C         -3.4058896286        0.3230369730        0.7200764645
 C         -2.4160581355        1.1306059752        1.5040618374
 C         -3.2367424598       -0.0083333545       -0.5575707437
 C         -2.0694237961        0.3974919423       -1.4208307952
 C         -0.7175785808        0.0847671158       -0.8274310072
 C         -0.4315922523       -1.1296079476       -0.2900197960
 O         -1.2987585026       -2.1456094271       -0.2288046555
 C          0.8954819864       -1.4639659800        0.2906860937
 O          1.1131716108       -2.5683227681        0.7673626622
 C          1.9088307573       -0.4002195354        0.2504269091
 C          3.1758038465       -0.6438093024        0.7729574113
 C          4.1469852779        0.3437407939        0.7473092994
 C          3.8585879159        1.5834266506        0.1991082028
 C          2.5992808098        1.8357329888       -0.3227038090
 C          1.6166945579        0.8525595516       -0.3033587719
 C          0.2805404026        1.1517467181       -0.8601381849
 O          0.0228936428        2.2606795693       -1.3242793553
 H         -5.2608565434       -0.7489055461        0.8861056307
 H         -5.1805083189        0.7478060979        1.8227583074
 H         -4.3052083207       -0.6733966628        2.3748181732
 H         -1.8357303755        1.7892719583        0.8627896516
 H         -1.7224757838        0.4701232159        2.0267210902
 H         -2.9290870044        1.7321143871        2.2505907203
 H         -4.0128010613       -0.5729363394       -1.0568689577
 H         -2.0932681035        1.4760567724       -1.6074164039
 H         -2.1507155073       -0.0953433009       -2.3933198058
 H         -2.1812294378       -1.8745725970       -0.5484120779
 H          3.3756244447       -1.6174410977        1.1946353856
 H          5.1253362207        0.1446497945        1.1547497407
 H          4.6115854427        2.3552492474        0.1771722475
 H          2.3535276002        2.7948319668       -0.7538774362
  32
 Etot=  -51.4249991103 g norm=  0.00031905
 C         -4.7042370250       -0.3217801445       -1.1537058415
 C         -3.4640185958        0.2170012600       -0.5091755436
 C         -2.5457064229        0.9637813710       -1.4286975975
 C         -3.2079792068        0.0175299333        0.7810056920
 C         -1.9975686368        0.5289416613        1.5198139125
 C         -0.6808954673        0.1493153622        0.8869265186
 C         -0.4118859645       -1.1229303217        0.4943656293
 O         -1.2649172403       -2.1447209033        0.6209449278
 C          0.8805752181       -1.5218450902       -0.1229555328
 O          1.0814209987       -2.6765230743       -0.4701083815
 C          1.8815690483       -0.4573815911       -0.2803713758
 C          3.1192609466       -0.7610164848       -0.8404628967
 C          4.0787327483        0.2256213170       -0.9984897057
 C          3.8071739421        1.5247433304       -0.5994898002
 C          2.5767184400        1.8370278278       -0.0424206700
 C          1.6067338469        0.8551736058        0.1234424974
 C          0.3022361164        1.2173816367        0.7166857960
 O          0.0578612079        2.3764351588        1.0463258636
 H         -5.2941494034       -0.9087812343       -0.4554376163
 H         -4.4378544964       -0.9463249838       -2.0049650832
 H         -5.3175743479        0.4979587058       -1.5247669946
 H         -3.1201468772        1.4854691336       -2.1904949777
 H         -1.8741655216        0.2685994782       -1.9347568728
 H         -1.9389843282        1.6883580379       -0.8914559580
 H         -3.9364454480       -0.5102543048        1.3819203609
 H         -2.0163659944        0.1577860973        2.5477616084
 H         -2.0202686890        1.6221416306        1.5747107775
 H         -2.1286877172       -1.8446973951        0.9632915838
 H          3.3055596677       -1.7799669871       -1.1450210415
 H          5.0347893246       -0.0202455398       -1.4324528169
 H          4.5511405683        2.2959509959       -0.7210443858
 H          2.3440997846        2.8429225131        0.2738601128
  32
 Etot=  -51.4239628966 g norm=  0.00031171
 C         -4.4691933364        0.6811307388        1.7883570510
 C         -3.6247930447        0.8183229937        0.5577165193
 C         -3.5842161977        2.1943463425       -0.0421237597
 C         -2.9867364267       -0.2267626375        0.0424983699
 C         -2.1113653492       -0.2064881675       -1.1845302975
 C         -0.6712528331       -0.3800235380       -0.7687789321
 C         -0.1376147575       -1.5984241777       -0.4939200850
 O         -0.7992444930       -2.7576359267       -0.6010124796
 C          1.2680232421       -1.7825968466       -0.0455939248
 O          1.7186949653       -2.8993574616        0.1644582372
 C          2.0632570570       -0.5584076227        0.1199868181
 C          3.3830653920       -0.6542677341        0.5523346814
 C          4.1524069839        0.4861805642        0.7147403690
 C          3.6080375269        1.7319446968        0.4452910369
 C          2.2950672733        1.8372222518        0.0133149519
 C          1.5127257578        0.7000766713       -0.1528686765
 C          0.1159398808        0.8422760913       -0.6147325837
 O         -0.3564158603        1.9491476155       -0.8617699130
 H         -4.0727935445        1.3137257305        2.5817302771
 H         -4.4957229905       -0.3462523607        2.1418463479
 H         -5.4862092677        1.0091605522        1.5791312967
 H         -4.0001246642        2.9214619303        0.6495770015
 H         -4.1677290912        2.2265366936       -0.9616044336
 H         -2.5632625391        2.4877240028       -0.2804843566
 H         -3.0515772375       -1.1820435737        0.5470997289
 H         -2.2032538688        0.7498451756       -1.6963242257
 H         -2.4154862026       -0.9957085871       -1.8766058907
 H         -1.7052773845       -2.6310305824       -0.9312084938
 H          3.7836633617       -1.6360606488        0.7554474968
 H          5.1741051160        0.4010100463        1.0488420026
 H          4.2040790308        2.6221195865        0.5684769786
 H          1.8519944223        2.7980570328       -0.2024427270
  32
 Etot=  -51.4249937110 g norm=  0.00022056
 C         -4.6337651583       -0.4127371851        1.3413084187
 C         -3.4296303443        0.1626450499        0.6611969864
 C         -2.4643543881        0.8640008820        1.5685774764
 C         -3.2411394487        0.0294222243       -0.6490790521
 C         -2.0715166467        0.5813243471       -1.4235418151
 C         -0.7231862978        0.1820740822       -0.8753048532
 C         -0.4293347862       -1.1045944138       -0.5539091834
 O         -1.2820613391       -2.1259780402       -0.6862486502
 C          0.8924616199       -1.5210708533       -0.0152930385
 O          1.1145379001       -2.6881811306        0.2722140534
 C          1.8943585155       -0.4575505173        0.1425464468
 C          3.1574033384       -0.7763097166        0.6332461868
 C          4.1183187155        0.2091662442        0.7900254248
 C          3.8231564411        1.5220046915        0.4584289569
 C          2.5672966520        1.8493927115       -0.0288507654
 C          1.5952694051        0.8691323990       -0.1919595271
 C          0.2626513161        1.2478637242       -0.7070716864
 O         -0.0019429476        2.4182587965       -0.9752823304
 H         -4.3225494315       -1.0898467292        2.1353488659
 H         -5.2657300228       -0.9540622266        0.6429378484
 H         -5.2202251284        0.3834580080        1.7973724536
 H         -2.9975722192        1.3421564745        2.3866906546
 H         -1.8885734519        1.6186440742        1.0388012264
 H         -1.7653925030        0.1461696188        2.0003483557
 H         -3.9995038289       -0.4701102091       -1.2371235674
 H         -2.1016263142        1.6757477997       -1.4266776374
 H         -2.1409095187        0.2581944993       -2.4654251322
 H         -2.1613508241       -1.8181823495       -0.9782224051
 H          3.3624823101       -1.8060089773        0.8847893198
 H          5.0942774932       -0.0487421370        1.1692334575
 H          4.5683061131        2.2923317273        0.5784910615
 H          2.3160767333        2.8661357287       -0.2917837412
  32
 Etot=  -51.4249820690 g norm=  0.00030847
 C         -4.6835243849       -0.1428076648        1.3256327536
 C         -3.4616437038        0.2960185162        0.5785033402
 C         -2.4977163192        1.1248678926        1.3727691306
 C         -3.2590052676       -0.0559511243       -0.6886525346
 C         -2.0732593023        0.3420773994       -1.5302185691
 C         -0.7354396088        0.0542380932       -0.8942548673
 C         -0.4520549905       -1.1486430068       -0.3302651561
 O         -1.3093329529       -2.1736531539       -0.2793450052
 C          0.8604237266       -1.4587734236        0.2950089682
 O          1.0760770279       -2.5532169056        0.7948539218
 C          1.8620009862       -0.3833917676        0.2701796631
 C          3.1148233855       -0.6037919150        0.8354374787
 C          4.0748494016        0.3948724323        0.8247454654
 C          3.7893142048        1.6226779371        0.2489301373
 C          2.5440421403        1.8518604124       -0.3155513500
 C          1.5728770035        0.8572693025       -0.3117397316
 C          0.2516449542        1.1318362179       -0.9148678332
 O         -0.0033102458        2.2297051614       -1.4062137663
 H         -5.3123841134       -0.7873175050        0.7178042706
 H         -5.2655497533        0.7255597803        1.6306659794
 H         -4.3936516896       -0.6795956630        2.2278133374
 H         -1.9052903512        1.7760398471        0.7348411136
 H         -1.8138227174        0.4791308716        1.9258382725
 H         -3.0342264647        1.7363367838        2.0943413707
 H         -4.0187606405       -0.6347361404       -1.1967622445
 H         -2.1015949717        1.4161508901       -1.7405687225
 H         -2.1249932239       -0.1725716117       -2.4933426879
 H         -2.1859102468       -1.9172752599       -0.6257773615
 H          3.3124383351       -1.5683871479        1.2783292180
 H          5.0423170816        0.2136509921        1.2651613056
 H          4.5335184050        2.4031513078        0.2386884970
 H          2.3003928826        2.8015838737       -0.7681562723
  32
 Etot=  -51.4249823939 g norm=  0.00048206
 C         -4.6926571198       -0.6972313181        1.0564964884
 C         -3.4563680151       -0.0021108534        0.5747032876
 C         -2.4828248551        0.3757572198        1.6497454294
 C         -3.2501418045        0.2314595673       -0.7188958359
 C         -2.0538445043        0.9387487946       -1.3023272257
 C         -0.7208771491        0.3792571803       -0.8693374444
 C         -0.4582428310       -0.9534259240       -0.8837166649
 O         -1.3333838065       -1.8883752856       -1.2684816447
 C          0.8516046391       -1.5230271662       -0.4706709768
 O          1.0427849480       -2.7303577667       -0.4790720283
 C          1.8822865941       -0.5566401859       -0.0659468929
 C          3.1413664528       -1.0171800068        0.3086713455
 C          4.1290742146       -0.1248984504        0.6925398535
 C          3.8645418402        1.2353904856        0.7074221483
 C          2.6127465242        1.7032627091        0.3387326733
 C          1.6145829746        0.8179181655       -0.0514887171
 C          0.2881746097        1.3442455680       -0.4364607713
 O          0.0480170724        2.5490984789       -0.3877262027
 H         -5.2575368049       -0.0385066283        1.7144595466
 H         -4.4212566585       -1.5825375597        1.6295495639
 H         -5.3316561378       -0.9934832568        0.2294112821
 H         -1.8197466984       -0.4630052372        1.8669386940
 H         -3.0129268740        0.6262756617        2.5655125547
 H         -1.8692398688        1.2241889763        1.3575310000
 H         -4.0159448666       -0.0523122413       -1.4282968130
 H         -2.0628232048        1.9952904119       -1.0147798305
 H         -2.1117085534        0.9062934255       -2.3935587921
 H         -2.2049931339       -1.4966641935       -1.4701317524
 H          3.3220277326       -2.0814537547        0.2901315624
 H          5.1017026121       -0.4918997310        0.9789810602
 H          4.6303201541        1.9335590449        1.0060802864
 H          2.3853449999        2.7588036828        0.3448635722
  32
 Etot=  -51.4250139402 g norm=  0.00022582
 C         -4.7136914538       -0.4571018570        1.1670807399
 C         -3.4795518414        0.1358462508        0.5595880223
 C         -2.5353247165        0.7702887852        1.5354799692
 C         -3.2495202946        0.0720103023       -0.7494229381
 C         -2.0520546494        0.6534681021       -1.4563354772
 C         -0.7203659823        0.2171841516       -0.8956428679
 C         -0.4458648284       -1.0834516800       -0.6160693632
 O         -1.3076208299       -2.0895541487       -0.7977467151
 C          0.8634753064       -1.5342750207       -0.0744399289
 O          1.0645957389       -2.7118205711        0.1845898119
 C          1.8814529353       -0.4917874175        0.1170819578
 C          3.1410411635       -0.8458171412        0.5923504556
 C          4.1175268262        0.1191096214        0.7779161549
 C          3.8409700794        1.4467958153        0.4924649564
 C          2.5882865413        1.8094633344        0.0222825499
 C          1.6013796702        0.8497784995       -0.1711714701
 C          0.2737797585        1.2649693264       -0.6709411540
 O          0.0204134577        2.4493470874       -0.8827213645
 H         -5.3282850438       -0.9510464230        0.4197309874
 H         -5.3051155668        0.3228855677        1.6444508966
 H         -4.4394355543       -1.1796338594        1.9342929248
 H         -3.0891215843        1.2158275893        2.3584252248
 H         -1.9270930317        1.5395742871        1.0663196499
 H         -1.8656332847        0.0169550007        1.9531281042
 H         -3.9941041965       -0.3839545245       -1.3882335482
 H         -2.0756780328        1.7468411778       -1.4025963169
 H         -2.0924661949        0.3867226340       -2.5156846879
 H         -2.1795860023       -1.7593685637       -1.0890110092
 H          3.3310788274       -1.8863741119        0.8087362730
 H          5.0908845396       -0.1660534703        1.1441417018
 H          4.5979729537        2.2013786935        0.6360423412
 H          2.3512393639        2.8384259460       -0.2035696363
  32
 Etot=  -51.4250008343 g norm=  0.00031247
 C         -4.6983199615       -0.2417040229       -1.2154022341
 C         -3.4648738140        0.2648235265       -0.5331069991
 C         -2.5506498482        1.0785192169       -1.3983607375
 C         -3.2097239368       -0.0174980770        0.7418668533
 C         -2.0045815110        0.4535844140        1.5149701438
 C         -0.6839144054        0.1220389596        0.8635306436
 C         -0.4079167542       -1.1194236416        0.3863996934
 O         -1.2560650575       -2.1516464320        0.4409092881
 C          0.8876268661       -1.4693430160       -0.2539400906
 O          1.0934673458       -2.5959289879       -0.6811961590
 C          1.8849033315       -0.3928947042       -0.3338851568
 C          3.1252174950       -0.6520849728       -0.9103319190
 C          4.0820952138        0.3461081874       -0.9941258559
 C          3.8052797689        1.6124141619       -0.5039485324
 C          2.5717562609        1.8808333711        0.0689234858
 C          1.6042771455        0.8869563953        0.1606718906
 C          0.2957335873        1.2028344163        0.7712684987
 O          0.0451287746        2.3357512002        1.1779762060
 H         -4.4234334637       -0.8144614685       -2.0998813435
 H         -5.3142545390        0.5949221837       -1.5418879347
 H         -5.2883764488       -0.8718126080       -0.5558650891
 H         -1.9534203824        1.7726889756       -0.8124560994
 H         -3.1270985567        1.6426351667       -2.1277017834
 H         -1.8697600438        0.4243766121       -1.9449298669
 H         -3.9350490985       -0.5894291148        1.3050633693
 H         -2.0239833419        0.0194491153        2.5178993041
 H         -2.0339188337        1.5410700141        1.6377442535
 H         -2.1227445526       -1.8798264668        0.7994164084
 H          3.3161221778       -1.6463386151       -1.2853457857
 H          5.0403399137        0.1344979870       -1.4410896050
 H          4.5472565464        2.3925248586       -0.5670980284
 H          2.3348488957        2.8611413635        0.4548090803
  32
 Etot=  -51.4236714661 g norm=  0.00046875
 C         -5.1222775539       -0.3234984809        1.3989205297
 C         -4.2102022909        0.2705707214        0.3712392587
 C         -4.8704637245        1.0444101192       -0.7324180119
 C         -2.8908951960        0.1208842825        0.4306419739
 C         -1.9363182234        0.7188957605       -0.5706490847
 C         -0.5223536541        0.2373177923       -0.3941525079
 C         -0.2012161603       -1.0797815370       -0.4808180430
 O         -1.0831297573       -2.0529421218       -0.7350024209
 C          1.1866145648       -1.5860791604       -0.3078719882
 O          1.4371294383       -2.7787165662       -0.4020249358
 C          2.2148597851       -0.5755474547       -0.0226492060
 C          3.5356009068       -0.9776040301        0.1567636151
 C          4.5226627030       -0.0441148987        0.4272504411
 C          4.1968981551        1.2997324002        0.5203533590
 C          2.8846592927        1.7098065376        0.3426297876
 C          1.8852284763        0.7826206528        0.0710008469
 C          0.4950172675        1.2490980690       -0.1163857784
 O          0.2125708520        2.4430468214       -0.0429745465
 H         -4.5643759898       -0.8715311992        2.1534225250
 H         -5.8310334339       -1.0000288009        0.9233169508
 H         -5.6932310217        0.4637169299        1.8890786339
 H         -4.7033948412        0.5653138841       -1.6965672191
 H         -4.4572529245        2.0502851911       -0.7907586646
 H         -5.9410100489        1.1160749652       -0.5660772529
 H         -2.4429393440       -0.4171814723        1.2552537236
 H         -1.9248448894        1.8087669076       -0.4631206579
 H         -2.2789259178        0.5060007009       -1.5891041628
 H         -1.9911092651       -1.7097399108       -0.8121209030
 H          3.7637021845       -2.0300151010        0.0788253715
 H          5.5426063364       -0.3661754678        0.5643559794
 H          4.9620673608        2.0299135268        0.7311142294
 H          2.6092969035        2.7516970312        0.4104641616
  32
 Etot=  -51.4249857365 g norm=  0.00039613
 C         -4.6737508474       -0.0473182559        1.4160157935
 C         -3.4575715914        0.3463469177        0.6353590085
 C         -2.4971801811        1.2361860561        1.3651636891
 C         -3.2555560078       -0.0930467793       -0.6043149326
 C         -2.0768455776        0.2570868269       -1.4759426285
 C         -0.7325402676        0.0195275031       -0.8327325258
 C         -0.4390392050       -1.1358691844       -0.1815126250
 O         -1.2897291098       -2.1583982881       -0.0441934947
 C          0.8793230661       -1.3905632352        0.4568968002
 O          1.0974210613       -2.4348494238        1.0536703181
 C          1.8832036965       -0.3255310645        0.3229040229
 C          3.1471233553       -0.5040547245        0.8781882014
 C          4.1096694388        0.4856452297        0.7638906778
 C          3.8151590739        1.6630915708        0.0949649251
 C          2.5583390457        1.8510656648       -0.4589781118
 C          1.5848752308        0.8644777775       -0.3525086617
 C          0.2512120317        1.0945947300       -0.9466271116
 O         -0.0157594950        2.1551537269       -1.5085251826
 H         -5.2988031690       -0.7389698599        0.8583145283
 H         -5.2622324063        0.8361818312        1.6588355792
 H         -4.3774356086       -0.5146277035        2.3538797012
 H         -1.8075253452        0.6359582018        1.9607896095
 H         -3.0356969233        1.8943580619        2.0429322550
 H         -1.9105658911        1.8434434037        0.6801958129
 H         -4.0115885148       -0.7128736752       -1.0675808239
 H         -2.1133741103        1.3155644911       -1.7535454814
 H         -2.1306186729       -0.3165747404       -2.4049077614
 H         -2.1710214763       -1.9365869981       -0.4024471815
 H          3.3515659267       -1.4295596879        1.3953227539
 H          5.0861273248        0.3367471089        1.1965462454
 H          4.5613179495        2.4363519436        0.0039932564
 H          2.3073946062        2.7615070882       -0.9825915553
  32
 Etot=  -51.4249697462 g norm=  0.00046568
 C         -4.7426440777       -0.6359559151        1.0453419753
 C         -3.5015350585        0.0368853009        0.5440285727
 C         -2.5656026135        0.5173413691        1.6117760116
 C         -3.2586422582        0.1664809196       -0.7578021400
 C         -2.0538756783        0.8422472110       -1.3606311538
 C         -0.7269543562        0.3280178403       -0.8577238895
 C         -0.4566918246       -0.9994925988       -0.7577081006
 O         -1.3180990031       -1.9697139027       -1.0811665849
 C          0.8471929167       -1.5235464556       -0.2715432870
 O          1.0394055153       -2.7255955139       -0.1608013913
 C          1.8717578325       -0.5205288977        0.0513888479
 C          3.1319883682       -0.9402961992        0.4681384376
 C          4.1148757876       -0.0128653339        0.7735200298
 C          3.8434174398        1.3421702867        0.6692788068
 C          2.5897425685        1.7697458358        0.2599354682
 C          1.5970174595        0.8486247450       -0.0539553673
 C          0.2689614798        1.3320218418       -0.4870631339
 O          0.0186874923        2.5349907629       -0.5330177892
 H         -5.3532187761       -1.0070160990        0.2270647967
 H         -5.3354077309        0.0647185867        1.6318769945
 H         -4.4768448625       -1.4684782233        1.6952412101
 H         -1.9503123837        1.3445257558        1.2665304517
 H         -1.9022995912       -0.2921060462        1.9210832862
 H         -3.1261877505        0.8400096545        2.4862181262
 H         -3.9985307417       -0.1857742818       -1.4637499154
 H         -2.0777359898        1.9164988541       -1.1491883285
 H         -2.0841530922        0.7323294432       -2.4478456225
 H         -2.1886016996       -1.6030415033       -1.3301351211
 H          3.3177360130       -2.0011745363        0.5426711155
 H          5.0888397956       -0.3484712430        1.0918543922
 H          4.6050740531        2.0675074178        0.9064919400
 H          2.3567629062        2.8208017040        0.1745449374
  32
 Etot=  -51.4237004190 g norm=  0.00033640
 C         -5.1295960430       -0.5493765569        1.2757808280
 C         -4.2126625495        0.1352742254        0.3102072558
 C         -4.8681335203        0.7337758226       -0.9014302079
 C         -2.9031215890        0.2161990352        0.5302146248
 C         -1.9248905594        0.9265243833       -0.3655049194
 C         -0.5255059799        0.3808172723       -0.2592319228
 C         -0.2644402322       -0.9446422402       -0.4029478706
 O         -1.1992314398       -1.8709318848       -0.6429141919
 C          1.1081955804       -1.5111343920       -0.3226288164
 O          1.3046943676       -2.7078215929       -0.4748100163
 C          2.1905845993       -0.5529520961       -0.0568486459
 C          3.5006448705       -1.0134022347        0.0414922876
 C          4.5379530865       -0.1301556274        0.2923003001
 C          4.2734480357        1.2214420123        0.4464749880
 C          2.9721015918        1.6895428010        0.3501144325
 C          1.9227098868        0.8131221155        0.0991200814
 C          0.5449447059        1.3404987786        0.0023226119
 O          0.3148377172        2.5402683011        0.1380954086
 H         -5.6677597169       -1.3538861513        0.7764210161
 H         -5.8672030180        0.1585089720        1.6512637164
 H         -4.5818820537       -0.9621250311        2.1188093273
 H         -4.7250774918        1.8131449134       -0.9144615407
 H         -5.9340365736        0.5264861114       -0.9005174723
 H         -4.4420890732        0.3338356087       -1.8203224717
 H         -2.4840033629       -0.1973155547        1.4384652364
 H         -1.8783879019        1.9870260678       -0.0956250923
 H         -2.2580154708        0.8773309011       -1.4063454479
 H         -2.0963283414       -1.4867638094       -0.6174426098
 H          3.6806802709       -2.0707281793       -0.0823718964
 H          5.5490013405       -0.4975420366        0.3669998448
 H          5.0777762359        1.9128437794        0.6415520624
 H          2.7441554059        2.7385733416        0.4666885940
  32
 Etot=  -51.4249925456 g norm=  0.00058171
 C         -4.6849707662       -0.3477508264       -1.1673455218
 C         -3.4541541729        0.2007429752       -0.5131117906
 C         -2.5208791458        0.9311520111       -1.4310319126
 C         -3.2182713639        0.0217695606        0.7839098995
 C         -2.0179745268        0.5418479864        1.5331014679
 C         -0.6945010891        0.1591239524        0.9169680631
 C         -0.4168263847       -1.1181466638        0.5475089587
 O         -1.2650545624       -2.1422261415        0.6875102971
 C          0.8806159838       -1.5201187045       -0.0570175156
 O          1.0922511329       -2.6807371989       -0.3770189173
 C          1.8703692156       -0.4497667329       -0.2429842621
 C          3.1061201217       -0.7526910066       -0.8076869373
 C          4.0529756565        0.2404947621       -0.9978309307
 C          3.7709082075        1.5453784503       -0.6260783715
 C          2.5434168375        1.8564678834       -0.0619233068
 C          1.5859264882        0.8682470273        0.1357489173
 C          0.2846927332        1.2291058266        0.7365977965
 O          0.0388111555        2.3888428051        1.0628441845
 H         -4.4062832829       -0.9906041900       -2.0009700771
 H         -5.2889145150        0.4661266444       -1.5658593280
 H         -5.2886990612       -0.9183063567       -0.4672561999
 H         -1.9235377991        1.6662834083       -0.8975255281
 H         -3.0826152641        1.4378081415       -2.2121116183
 H         -1.8400566323        0.2274463275       -1.9125259288
 H         -3.9570674695       -0.4951499640        1.3816313097
 H         -2.0484642048        0.1799371012        2.5640394822
 H         -2.0435691078        1.6354105853        1.5780545839
 H         -2.1325662915       -1.8413939921        1.0192364207
 H          3.3009642636       -1.7763593653       -1.0902345833
 H          5.0072572679       -0.0051505439       -1.4357500032
 H          4.5045613065        2.3220332282       -0.7732346144
 H          2.3034792701        2.8664078332        0.2355445986
  32
 Etot=  -51.4237118550 g norm=  0.00026503
 C         -5.1577715502       -0.6988435385        1.0717485996
 C         -4.2107707343        0.0713576467        0.2046967293
 C         -4.8194370953        0.7206643940       -1.0053287183
 C         -2.9196060099        0.1798673090        0.5092715858
 C         -1.9113716737        0.9734658368       -0.2748217252
 C         -0.5186084267        0.4041118406       -0.2036878449
 C         -0.2704827398       -0.9129298618       -0.4269589803
 O         -1.2139821824       -1.8154368392       -0.7180436738
 C          1.0967960699       -1.4964799528       -0.3819205853
 O          1.2781759511       -2.6890610509       -0.5797866806
 C          2.1931008195       -0.5595778620       -0.0977713628
 C          3.5020342721       -1.0319818654       -0.0596553377
 C          4.5523787835       -0.1677062520        0.2023441725
 C          4.3020267351        1.1761602638        0.4307528247
 C          3.0016490128        1.6552639324        0.3986186356
 C          1.9394077706        0.7983339052        0.1344419042
 C          0.5631997990        1.3375809274        0.1033297812
 O          0.3436749773        2.5263554578        0.3262694465
 H         -5.6262138198       -1.4977130167        0.4983046806
 H         -5.9486993773       -0.0417757074        1.4308846959
 H         -4.6484092660       -1.1325694371        1.9281522050
 H         -5.8658459554        0.4458492035       -1.0994224363
 H         -4.3039746797        0.4251004768       -1.9177161776
 H         -4.7529801996        1.8046294722       -0.9250524876
 H         -2.5429272915       -0.2745980262        1.4168836618
 H         -1.8591036200        1.9954280828        0.1158049041
 H         -2.2172001222        1.0496174333       -1.3221004543
 H         -2.1078968310       -1.4239933125       -0.6582004118
 H          3.6710514692       -2.0827985717       -0.2415107775
 H          5.5626803578       -0.5434530271        0.2274343123
 H          5.1166770625        1.8524879763        0.6357735051
 H          2.7844422486        2.6983932395        0.5741760273
  32
 Etot=  -51.4249643749 g norm=  0.00038283
 C         -4.5621421819       -0.2044509206        1.5440525977
 C         -3.3803615136        0.2728385164        0.7571746651
 C         -2.4005995955        1.1053181393        1.5280547963
 C         -3.2224863331       -0.0480371151       -0.5240388805
 C         -2.0756345818        0.3915936116       -1.3982116916
 C         -0.7142919315        0.0726198063       -0.8296388119
 C         -0.4054667048       -1.1619801744       -0.3547611682
 O         -1.2500485275       -2.1982972122       -0.3473548754
 C          0.9266112908       -1.4984542129        0.2138159191
 O          1.1645144696       -2.6204565660        0.6362467304
 C          1.9177277584       -0.4135284234        0.2340016718
 C          3.1855097064       -0.6562242949        0.7551267097
 C          4.1366730064        0.3504491963        0.7833373314
 C          3.8274849781        1.6083050493        0.2905411435
 C          2.5670458578        1.8598484196       -0.2289937929
 C          1.6043321018        0.8577737781       -0.2627976172
 C          0.2656202365        1.1567404355       -0.8136017086
 O         -0.0089285841        2.2796332906       -1.2324757959
 H         -5.1494162129        0.6459808492        1.8872746972
 H         -4.2254038679       -0.7500263479        2.4242062289
 H         -5.2011709528       -0.8519551779        0.9503875175
 H         -1.8493711789        1.7819332679        0.8800419922
 H         -1.6808739025        0.4629564736        2.0373312203
 H         -2.9181742572        1.6903672214        2.2844225232
 H         -3.9896119156       -0.6329184386       -1.0136434895
 H         -2.1098756595        1.4749413970       -1.5520097257
 H         -2.1696410492       -0.0728151631       -2.3829622281
 H         -2.1344298837       -1.9398624058       -0.6685457572
 H          3.4017647086       -1.6442879710        1.1327589646
 H          5.1158087869        0.1522864829        1.1893039829
 H          4.5649557607        2.3948095456        0.3109039368
 H          2.3050260440        2.8332070924       -0.6161951963
  32
 Etot=  -51.4250235758 g norm=  0.00031303
 C         -4.6977406051       -0.3938658315       -1.1017891322
 C         -3.4440162266        0.1711044269       -0.5079202910
 C         -2.5002335506        0.7909282143       -1.4937120531
 C         -3.1989982098        0.0973546104        0.7977564882
 C         -1.9807279005        0.6502798322        1.4923242339
 C         -0.6677296963        0.1981416413        0.9014833968
 C         -0.4185377072       -1.1054888959        0.6125805445
 O         -1.2895842755       -2.0998460447        0.8139814509
 C          0.8698638969       -1.5732756545        0.0365069484
 O          1.0519168446       -2.7546307276       -0.2190853319
 C          1.8905321134       -0.5417574338       -0.1962294291
 C          3.1254392365       -0.9092079481       -0.7232657863
 C          4.1033486423        0.0453720571       -0.9503763762
 C          3.8533297718        1.3758167504       -0.6537169868
 C          2.6256962616        1.7516002316       -0.1307069480
 C          1.6371970520        0.8026301392        0.1032922748
 C          0.3356747337        1.2324470744        0.6565401949
 O          0.1097296457        2.4177197424        0.8926858888
 H         -4.4479978051       -1.1151789144       -1.8783070682
 H         -5.2813060713        0.4006785805       -1.5645737880
 H         -5.3105825493       -0.8822277850       -0.3493889243
 H         -1.8725710564        1.5478831325       -1.0302383280
 H         -3.0557505241        1.2485445831       -2.3088261064
 H         -1.8494966379        0.0265997287       -1.9211820298
 H         -3.9447186801       -0.3457666430        1.4442867913
 H         -2.0082358178        0.3704322854        2.5486606568
 H         -1.9868542306        1.7445229099        1.4526803687
 H         -2.1497460282       -1.7595066333        1.1269152901
 H          3.2950453597       -1.9516764215       -0.9471519440
 H          5.0569500242       -0.2500805273       -1.3580031912
 H          4.6116567459        2.1222830728       -0.8290546548
 H          2.4098340474        2.7828628352        0.1056770926
  32
 Etot=  -51.4239732840 g norm=  0.00030327
 C         -4.4808959085        0.5276601222        1.8063089625
 C         -3.6333180468        0.7595924737        0.5922347435
 C         -3.6011952008        2.1752950225        0.0921518207
 C         -2.9851933655       -0.2405670409        0.0054685167
 C         -2.1061733655       -0.1243553671       -1.2134465754
 C         -0.6676508332       -0.3309373043       -0.8075982463
 C         -0.1358367507       -1.5676989949       -0.6274768753
 O         -0.7977368929       -2.7142032647       -0.8270794790
 C          1.2680244912       -1.7876308426       -0.1895702115
 O          1.7172343192       -2.9178261606       -0.0654387826
 C          2.0635984052       -0.5807229913        0.0731223400
 C          3.3823186398       -0.7115796181        0.4997328326
 C          4.1526766768        0.4118063871        0.7513339061
 C          3.6100637194        1.6754374454        0.5785993324
 C          2.2977460596        1.8156696347        0.1545158307
 C          1.5146949776        0.6958544270       -0.1016751696
 C          0.1188157108        0.8749467809       -0.5535581032
 O         -0.3534246430        1.9980561111       -0.7111945644
 H         -4.0996016089        1.1138553780        2.6413653521
 H         -4.4906522048       -0.5209050340        2.0915496485
 H         -5.5027637462        0.8505582698        1.6131557427
 H         -4.0419641639        2.8463032015        0.8243064528
 H         -4.1652974276        2.2649640985       -0.8357967604
 H         -2.5793982808        2.4971644875       -0.1024950238
 H         -3.0434322265       -1.2303263918        0.4396285395
 H         -2.1960093846        0.8694589205       -1.6484351912
 H         -2.4079229994       -0.8565167066       -1.9666212461
 H         -1.7025570906       -2.5624099127       -1.1499955626
 H          3.7813576913       -1.7068105895        0.6262920904
 H          5.1729389590        0.2996867988        1.0819321526
 H          4.2062360656        2.5525918395        0.7737065846
 H          1.8564213364        2.7908726301        0.0127282734
  32
 Etot=  -51.4249692445 g norm=  0.00025181
 C         -4.7317747790       -0.7216993502        0.9800807136
 C         -3.4897158376       -0.0176901426        0.5267394743
 C         -2.5403825335        0.3606997012        1.6230247364
 C         -3.2582342263        0.2228745613       -0.7613287757
 C         -2.0547574161        0.9406327789       -1.3161026128
 C         -0.7267149596        0.3835795647       -0.8649919285
 C         -0.4587017987       -0.9479316574       -0.8806267538
 O         -1.3242147662       -1.8847152572       -1.2819439025
 C          0.8468544295       -1.5139571185       -0.4493286095
 O          1.0388436712       -2.7210546881       -0.4480313211
 C          1.8729019146       -0.5442098104       -0.0407736437
 C          3.1329697522       -1.0002136600        0.3361205275
 C          4.1165858298       -0.1044328351        0.7223090675
 C          3.8464784912        1.2547608474        0.7386104902
 C          2.5932679350        1.7180474552        0.3686875925
 C          1.5995440236        0.8292255940       -0.0248290776
 C          0.2718339768        1.3505441483       -0.4122854385
 O          0.0223323868        2.5529322588       -0.3500854308
 H         -5.3137720081       -0.0689394677        1.6289667952
 H         -4.4675652100       -1.6080126941        1.5548914018
 H         -5.3519362560       -1.0179081900        0.1388239595
 H         -1.9238460995        1.2123064639        1.3463666824
 H         -1.8789197952       -0.4764167091        1.8515369174
 H         -3.0904076771        0.6064948323        2.5282970841
 H         -4.0075067872       -0.0621336042       -1.4877398746
 H         -2.0737653132        1.9943446928       -1.0189004536
 H         -2.0925034254        0.9181874574       -2.4084394920
 H         -2.1943588184       -1.4954536480       -1.4947690490
 H          3.3176320439       -2.0638150475        0.3175699645
 H          5.0903248326       -0.4678609686        1.0097132788
 H          4.6090918784        1.9556149273        1.0388704261
 H          2.3613899877        2.7726253510        0.3764421227
  32
 Etot=  -51.4249792488 g norm=  0.00037269
 C         -4.7298813878       -0.6094314676        1.0768922235
 C         -3.4865940520        0.0518035553        0.5661898495
 C         -2.5317249115        0.5105258082        1.6265143094
 C         -3.2578383973        0.1887627968       -0.7374822847
 C         -2.0519652906        0.8533396564       -1.3502952639
 C         -0.7263732230        0.3270787484       -0.8568980249
 C         -0.4665096808       -1.0028643829       -0.7625936980
 O         -1.3372451500       -1.9647507552       -1.0861774585
 C          0.8345189449       -1.5393455003       -0.2826009015
 O          1.0197468342       -2.7435356481       -0.1838839584
 C          1.8639341496       -0.5455075825        0.0527922225
 C          3.1173950910       -0.9767651181        0.4778128918
 C          4.1041437735       -0.0583071832        0.7970362222
 C          3.8438545602        1.2992367577        0.6972058905
 C          2.5973056954        1.7382439495        0.2785031328
 C          1.6004670278        0.8261844172       -0.0483637655
 C          0.2797175764        1.3220408724       -0.4894037978
 O          0.0418940258        2.5272019775       -0.5399945737
 H         -4.4667797966       -1.4518447633        1.7147698342
 H         -5.3560865853       -0.9642234382        0.2632129261
 H         -5.3051528860        0.0928333454        1.6783216321
 H         -1.8706187706       -0.3080054375        1.9155736998
 H         -3.0774062850        0.8259437508        2.5125994486
 H         -1.9147392662        1.3370195307        1.2827267329
 H         -4.0106398902       -0.1490069053       -1.4371323254
 H         -2.0647156241        1.9277861543       -1.1390610270
 H         -2.0921665610        0.7436041273       -2.4372186902
 H         -2.2052750786       -1.5898386400       -1.3310458063
 H          3.2948004778       -2.0393944042        0.5484657033
 H          5.0727953722       -0.4028266089        1.1222912842
 H          4.6090235380        2.0177530365        0.9446851855
 H          2.3731450044        2.7912948181        0.1959540581
  32
 Etot=  -51.4236831158 g norm=  0.00029942
 C         -5.0595104396       -0.2795543926       -1.4816668544
 C         -4.1945653947        0.1858503210       -0.3484498234
 C         -4.9403712087        0.4923232641        0.9146662187
 C         -2.8813798488        0.3309978756       -0.5023093477
 C         -1.9104673711        0.8417162714        0.5283036461
 C         -0.5122783820        0.3242117152        0.3141601622
 C         -0.2532222020       -1.0049409968        0.2049245007
 O         -1.1873512745       -1.9591879023        0.2778030903
 C          1.1169657210       -1.5466070109        0.0003400283
 O          1.3106297321       -2.7500688940       -0.0880872208
 C          2.1997005797       -0.5564081859       -0.0855465341
 C          3.5081019788       -0.9906997997       -0.2792544169
 C          4.5453859776       -0.0766048799       -0.3652339264
 C          4.2825475452        1.2799953735       -0.2582295325
 C          2.9829490085        1.7221331206       -0.0651006079
 C          1.9336492739        0.8146013181        0.0229523670
 C          0.5580240571        1.3152281108        0.2299051379
 O          0.3300210079        2.5190997190        0.3275867086
 H         -5.8260178531        0.4643441625       -1.6928535382
 H         -5.5655743880       -1.2063506145       -1.2151399830
 H         -4.4769144151       -0.4463399955       -2.3835437705
 H         -5.7362100246       -0.2335148216        1.0669737005
 H         -5.3994659642        1.4773122252        0.8346041334
 H         -4.2949580286        0.4963936307        1.7879518825
 H         -2.4406956695        0.1238367560       -1.4698717129
 H         -2.2415800758        0.5838298778        1.5382705026
 H         -1.8598819290        1.9343387817        0.4773869481
 H         -2.0833562294       -1.5787674070        0.3458180379
 H          3.6870006429       -2.0524626591       -0.3591818534
 H          5.5553649491       -0.4236857615       -0.5148248265
 H          5.0867817325        1.9952684455       -0.3253781561
 H          2.7559523339        2.7744022174        0.0206134244
  32
 Etot=  -51.4236838960 g norm=  0.00029142
 C         -5.0641161597       -0.5872112970        1.3401573875
 C         -4.1839962307        0.0656426180        0.3167027189
 C         -4.8964259165        0.4934271538       -0.9304570638
 C         -2.8884363757        0.2582043487        0.5505838556
 C         -1.9033125088        0.9462318758       -0.3539693688
 C         -0.5099729098        0.3856433487       -0.2306726809
 C         -0.2654478851       -0.9471089897       -0.3303051560
 O         -1.2120003491       -1.8686581223       -0.5382495931
 C          1.1008804969       -1.5269411878       -0.2334243323
 O          1.2833222262       -2.7296128161       -0.3510763331
 C          2.1941161951       -0.5742523289        0.0061090999
 C          3.4978999512       -1.0475052084        0.1260371386
 C          4.5449688691       -0.1694682937        0.3528617151
 C          4.2968337651        1.1897272815        0.4608612093
 C          3.0020081795        1.6705678390        0.3426984419
 C          1.9428075330        0.7993734279        0.1159073094
 C          0.5720344192        1.3404982237       -0.0026347763
 O          0.3572279933        2.5473934928        0.0880809666
 H         -5.4890976609       -1.5070209900        0.9399690458
 H         -5.8907385047        0.0745239265        1.5942392731
 H         -4.5127646104       -0.8222567762        2.2467360743
 H         -5.3739630690        1.4580970108       -0.7629281623
 H         -5.6744807083       -0.2226270305       -1.1836655101
 H         -4.2261059449        0.5977991458       -1.7781483679
 H         -2.4769009455       -0.0510636549        1.5035364733
 H         -1.8450911052        2.0084773761       -0.0945293957
 H         -2.2245128728        0.8899793026       -1.3976030541
 H         -2.1040859291       -1.4701579063       -0.5203827260
 H          3.6650571781       -2.1105614969        0.0384777340
 H          5.5508956500       -0.5465243324        0.4458607134
 H          5.1087757887        1.8767690627        0.6383281011
 H          2.7865095325        2.7256299177        0.4230064653
  32
 Etot=  -51.4249815086 g norm=  0.00042583
 C         -4.6890933162       -0.7513148756        1.0419985545
 C         -3.4519381453       -0.0404516498        0.5860712966
 C         -2.4768613122        0.2939901519        1.6738459945
 C         -3.2467107016        0.2422187856       -0.6979415012
 C         -2.0513874070        0.9709716393       -1.2561656679
 C         -0.7166456202        0.3997898457       -0.8446855995
 C         -0.4530041456       -0.9317688715       -0.8965200562
 O         -1.3287038565       -1.8567493824       -1.3034670428
 C          0.8581577609       -1.5112844085       -0.5019033373
 O          1.0470095461       -2.7185357529       -0.5341422809
 C          1.8940947294       -0.5542724860       -0.0883596116
 C          3.1584075986       -1.0226727647        0.2576320663
 C          4.1521493282       -0.1386425352        0.6450669522
 C          3.8882846150        1.2210439572        0.6926671820
 C          2.6306922765        1.6964650312        0.3546762930
 C          1.6264745733        0.8194727354       -0.0388257441
 C          0.2932415019        1.3530363610       -0.3883056565
 O          0.0484087977        2.5541233127       -0.2922223813
 H         -5.3305438709       -1.0115705785        0.2049830512
 H         -5.2508207764       -0.1189720925        1.7277239052
 H         -4.4189520677       -1.6602188849        1.5773183916
 H         -1.8168478321       -0.5547729694        1.8596294701
 H         -3.0059578418        0.5123404294        2.5983262850
 H         -1.8603527131        1.1505588529        1.4130302021
 H         -4.0139632299       -0.0126648632       -1.4166280115
 H         -2.0618032716        2.0167879060       -0.9317489208
 H         -2.1098000317        0.9770188863       -2.3478410999
 H         -2.2009426903       -1.4599236644       -1.4925109679
 H          3.3384203194       -2.0863202838        0.2137333706
 H          5.1288379885       -0.5116074461        0.9096587203
 H          4.6591400436        1.9129227298        0.9927641494
 H          2.4030984498        2.7514514251        0.3885483421
  32
 Etot=  -51.4239703668 g norm=  0.00035643
 C         -4.4735288431        0.5183545581        1.8264023347
 C         -3.6207121202        0.7677620053        0.6194715270
 C         -3.5759749617        2.1929656922        0.1485825556
 C         -2.9792591209       -0.2256404537        0.0143609031
 C         -2.0974679065       -0.0924986574       -1.2009112595
 C         -0.6598294718       -0.3135238088       -0.7994440243
 C         -0.1344882448       -1.5559198278       -0.6403397634
 O         -0.8036257602       -2.6952874759       -0.8568802810
 C          1.2690765615       -1.7907175745       -0.2094004048
 O          1.7117661627       -2.9252140067       -0.1032114365
 C          2.0723707455       -0.5927130538        0.0698187304
 C          3.3915710864       -0.7377119522        0.4901310014
 C          4.1689789450        0.3771511035        0.7574456239
 C          3.6328974552        1.6463140570        0.6070430426
 C          2.3201923632        1.8005834708        0.1891859450
 C          1.5301001197        0.6894908582       -0.0827221604
 C          0.1341874523        0.8837805552       -0.5283237732
 O         -0.3314881936        2.0119958648       -0.6689172602
 H         -5.4913504935        0.8562053040        1.6375473017
 H         -4.0885456869        1.0823790495        2.6751154789
 H         -4.4951335064       -0.5360567237        2.0889720202
 H         -2.5528275308        2.5076046276       -0.0500137193
 H         -4.0010438265        2.8531419618        0.8991953122
 H         -4.1489319362        2.3090381018       -0.7706199431
 H         -3.0457197751       -1.2231876390        0.4292577003
 H         -2.1819364733        0.9091328137       -1.6187020178
 H         -2.4027036085       -0.8096912006       -1.9670161357
 H         -1.7080318798       -2.5320921600       -1.1753388326
 H          3.7855308149       -1.7369681456        0.5994119449
 H          5.1899146958        0.2540218362        1.0818207231
 H          4.2346008903        2.5169783772        0.8141314760
 H          1.8837600566        2.7803858449        0.0651116927
  32
 Etot=  -51.4239602403 g norm=  0.00035006
 C         -4.5359309831        0.3577669773       -1.8103239547
 C         -3.6673964762        0.7018713847       -0.6384699406
 C         -3.6532987758        2.1533523756       -0.2530083600
 C         -2.9848108496       -0.2348973118        0.0104449931
 C         -2.0832125752       -0.0024836862        1.1957950861
 C         -0.6511252107       -0.2408905037        0.7857471155
 C         -0.1084867978       -1.4849879398        0.7351364948
 O         -0.7553411966       -2.6086440451        1.0696671466
 C          1.2930881643       -1.7381413171        0.3082443025
 O          1.7566236660       -2.8693179346        0.3138424287
 C          2.0686823007       -0.5614764875       -0.1071284293
 C          3.3819968614       -0.7267887686       -0.5382054728
 C          4.1322722446        0.3672886390       -0.9368520381
 C          3.5746920072        1.6357331782       -0.9079910956
 C          2.2683318459        1.8104068645       -0.4782447318
 C          1.5054187513        0.7204388718       -0.0750026911
 C          0.1165896197        0.9363427542        0.3827792296
 O         -0.3649914584        2.0656585022        0.4253906841
 H         -4.1874284199        0.8857102161       -2.6971540409
 H         -5.5605863242        0.6723192950       -1.6177205761
 H         -4.5273730461       -0.7098389227       -2.0135716268
 H         -4.1854405568        2.3049464631        0.6853148550
 H         -4.1359301273        2.7539777501       -1.0186188463
 H         -2.6332281118        2.5113702646       -0.1235996775
 H         -3.0305333864       -1.2578837628       -0.3405332122
 H         -2.3676511980       -0.6613144976        2.0202384204
 H         -2.1703672627        1.0275521515        1.5367513693
 H         -1.6595852193       -2.4302649269        1.3805340411
 H          3.7929981573       -1.7251176944       -0.5518408671
 H          5.1485335383        0.2282295271       -1.2694783593
 H          4.1545533026        2.4901678111       -1.2188890734
 H          1.8161666334        2.7904573159       -0.4466545827
  32
 Etot=  -51.4249830041 g norm=  0.00019276
 C         -4.5864582512       -0.1343032017        1.5599215366
 C         -3.3919063282        0.3098753269        0.7729047671
 C         -2.4062314055        1.1435259038        1.5344781706
 C         -3.2289199966       -0.0420153225       -0.4999071037
 C         -2.0727151287        0.3615289167       -1.3789898519
 C         -0.7134435608        0.0717516247       -0.7908814754
 C         -0.4108325143       -1.1319566645       -0.2388247868
 O         -1.2664856811       -2.1562806605       -0.1572598562
 C          0.9237637463       -1.4442753218        0.3367390331
 O          1.1561808326       -2.5392210161        0.8280279755
 C          1.9260308921       -0.3712334115        0.2728323414
 C          3.1999660077       -0.5952059904        0.7871795636
 C          4.1613599977        0.4009427790        0.7382504729
 C          3.8562149898        1.6296388849        0.1745613224
 C          2.5897568750        1.8625439621       -0.3387606127
 C          1.6168202773        0.8705685696       -0.2960127580
 C          0.2727378319        1.1491103165       -0.8443172871
 O         -0.0010940388        2.2502319493       -1.3179080683
 H         -5.2323380263       -0.7813096986        0.9732018161
 H         -5.1619175814        0.7311360508        1.8849844872
 H         -4.2645278359       -0.6701852135        2.4514959825
 H         -1.7028432695        0.5011710041        2.0665802305
 H         -2.9214145662        1.7548412347        2.2716496444
 H         -1.8368243246        1.7949838298        0.8764190115
 H         -4.0020390983       -0.6248125388       -0.9826869247
 H         -2.1084860277        1.4367183775       -1.5824322327
 H         -2.1567301499       -0.1479157633       -2.3426397336
 H         -2.1535883049       -1.9002430063       -0.4760734686
 H          3.4127315945       -1.5605572218        1.2214380579
 H          5.1453896274        0.2171139541        1.1390136171
 H          4.6016480258        2.4079782615        0.1344691812
 H          2.3305470553        2.8131633737       -0.7805216625
  32
 Etot=  -51.4250204693 g norm=  0.00029877
 C         -4.7296963850       -0.4742607224        1.1439132827
 C         -3.4889028959        0.1295591096        0.5611616807
 C         -2.5407860478        0.7174732448        1.5620564693
 C         -3.2572983611        0.1127861925       -0.7490299769
 C         -2.0524165116        0.7063558720       -1.4331725061
 C         -0.7274254893        0.2439660710       -0.8778758498
 C         -0.4639750309       -1.0672225066       -0.6401410854
 O         -1.3313453921       -2.0602924552       -0.8621521775
 C          0.8382897945       -1.5455634871       -0.1056966329
 O          1.0340731972       -2.7341706723        0.1019420350
 C          1.8560543628       -0.5153923858        0.1447521715
 C          3.1040659007       -0.8926309463        0.6324029600
 C          4.0803767398        0.0601763022        0.8733489279
 C          3.8153972332        1.3985989388        0.6304208829
 C          2.5744139901        1.7841597483        0.1475236265
 C          1.5874633069        0.8370762331       -0.1002623141
 C          0.2717934166        1.2768205806       -0.6106224650
 O          0.0314403433        2.4685128412       -0.7949002889
 H         -5.3488691037       -0.9311846402        0.3772185665
 H         -5.3133540485        0.2915949919        1.6524152192
 H         -4.4634372309       -1.2300898167        1.8811980424
 H         -1.8803767825       -0.0579235213        1.9532662612
 H         -3.0920554663        1.1381553288        2.3996632117
 H         -1.9231320641        1.4969969996        1.1232050906
 H         -4.0058253494       -0.3103783142       -1.4055762529
 H         -2.0688319380        1.7978971022       -1.3484962070
 H         -2.0895493658        0.4696533348       -2.4998342525
 H         -2.1990004774       -1.7146381982       -1.1480811604
 H          3.2852208107       -1.9413019416        0.8144244811
 H          5.0444317810       -0.2428633636        1.2496112009
 H          4.5724927072        2.1437391340        0.8164498717
 H          2.3468129194        2.8217115018       -0.0465239769
  32
 Etot=  -51.4249908367 g norm=  0.00024161
 C         -4.6579650877       -0.2384618074        1.3623661306
 C         -3.4474340293        0.2582432595        0.6335415367
 C         -2.4938209934        1.0631857549        1.4640027546
 C         -3.2441885968       -0.0250754510       -0.6504511328
 C         -2.0668005584        0.4376875445       -1.4701012142
 C         -0.7234757709        0.1001975190       -0.8702479059
 C         -0.4344577568       -1.1431383598       -0.4059116276
 O         -1.2884177209       -2.1717099714       -0.4295702572
 C          0.8832905929       -1.4993327652        0.1837365109
 O          1.1010904127       -2.6276068087        0.6008850245
 C          1.8873671346       -0.4268875988        0.2264724842
 C          3.1480557709       -0.6919761874        0.7538308941
 C          4.1112574539        0.3024847283        0.8027335716
 C          3.8207572616        1.5708998712        0.3260152016
 C          2.5672181661        1.8450264136       -0.1987278023
 C          1.5930490989        0.8549649690       -0.2547352989
 C          0.2631543052        1.1770754654       -0.8135391831
 O          0.0015348789        2.3118199685       -1.2080704716
 H         -5.2556556935        0.6034620659        1.7080838957
 H         -4.3551301144       -0.8101717724        2.2381479839
 H         -5.2761850629       -0.8662170664        0.7270151899
 H         -1.7996300037        0.4025285741        1.9854938521
 H         -3.0370892582        1.6331671529        2.2139525809
 H         -1.9118033060        1.7513403287        0.8562696562
 H         -3.9950493212       -0.5915403922       -1.1850773844
 H         -2.0948969387        1.5251822717       -1.5927832160
 H         -2.1277222864        0.0029137507       -2.4710948414
 H         -2.1661786609       -1.8962067612       -0.7565546614
 H          3.3497906560       -1.6879281736        1.1185674863
 H          5.0853210235        0.0861560318        1.2115683499
 H          4.5675471515        2.3481152363        0.3622364268
 H          2.3192882457        2.8269991454       -0.5732143966
  32
 Etot=  -51.4236706949 g norm=  0.00039735
 C         -5.1266847035       -0.6478265820        1.2183726253
 C         -4.1925906694        0.0372286080        0.2691582226
 C         -4.8122374414        0.5243857072       -1.0094169566
 C         -2.9071170006        0.2136457818        0.5667706119
 C         -1.9069042643        0.9366485925       -0.2916052296
 C         -0.5125574179        0.3773725783       -0.1774168967
 C         -0.2643466612       -0.9535227383       -0.2909830861
 O         -1.2101728260       -1.8765138039       -0.4981930199
 C          1.1044110309       -1.5296795358       -0.2128840627
 O          1.2880483846       -2.7321785630       -0.3313124387
 C          2.1990564436       -0.5737615999        0.0068076920
 C          3.5075915048       -1.0416318480        0.0900399430
 C          4.5561076841       -0.1603046320        0.2967364384
 C          4.3045286888        1.1967266987        0.4222148826
 C          3.0048749319        1.6721850964        0.3409108806
 C          1.9443088084        0.7978009085        0.1334192830
 C          0.5687023319        1.3333003882        0.0511950922
 O          0.3492044094        2.5367587465        0.1708363154
 H         -5.5637740803       -1.5271180012        0.7471168591
 H         -5.9415481259        0.0238184222        1.4843977732
 H         -4.6158599496       -0.9539288507        2.1273284832
 H         -5.8269097954        0.1501090681       -1.1074282941
 H         -4.2424176439        0.2037119883       -1.8793719485
 H         -4.8452411800        1.6128154934       -1.0198343653
 H         -2.5286861861       -0.1246075187        1.5231153504
 H         -1.8556177601        1.9887748631        0.0080942040
 H         -2.2184585346        0.9190323810       -1.3396507705
 H         -2.1033917196       -1.4800568771       -0.4560626240
 H          3.6774097591       -2.1032806505       -0.0088932733
 H          5.5659904520       -0.5332408961        0.3591856671
 H          5.1180052958        1.8868114025        0.5811594215
 H          2.7867612266        2.7255483015        0.4352084429
  32
 Etot=  -51.4236813826 g norm=  0.00037933
 C         -5.1049282757       -0.2445699170        1.4292521091
 C         -4.2046709682        0.3080118101        0.3684544049
 C         -4.8765107544        1.0472367872       -0.7516299170
 C         -2.8860751193        0.1489155302        0.4132672817
 C         -1.9400126563        0.7006586255       -0.6225886937
 C         -0.5256393587        0.2263414655       -0.4302412472
 C         -0.2061321384       -1.0935907921       -0.4651308431
 O         -1.0892851689       -2.0742505643       -0.6833665921
 C          1.1803514288       -1.5947659147       -0.2691988766
 O          1.4305768728       -2.7897329962       -0.3233032119
 C          2.2071135884       -0.5761736621       -0.0081893257
 C          3.5242820338       -0.9738269519        0.2038391852
 C          4.5099011579       -0.0328604485        0.4528420749
 C          4.1864477590        1.3142870499        0.4900773006
 C          2.8778830421        1.7200951188        0.2786488948
 C          1.8796120546        0.7852794749        0.0296973276
 C          0.4925629678        1.2469617266       -0.1910495171
 O          0.2132235510        2.4437817017       -0.1737355387
 H         -4.5406469986       -0.7839760495        2.1853312459
 H         -5.8350092577       -0.9197132468        0.9850745041
 H         -5.6517912987        0.5641362356        1.9120870595
 H         -5.9364876151        1.1687955126       -0.5511704913
 H         -4.7646636371        0.5091715525       -1.6922636294
 H         -4.4292682823        2.0312265634       -0.8815613068
 H         -2.4311294744       -0.3656595235        1.2489808484
 H         -1.9277438675        1.7942941825       -0.5662993126
 H         -2.2899735233        0.4399105543       -1.6272952537
 H         -1.9960933742       -1.7321268967       -0.7763297949
 H          3.7509410322       -2.0288128878        0.1688295143
 H          5.5268654119       -0.3517009386        0.6168455937
 H          4.9504840784        2.0503371177        0.6834939284
 H          2.6043031092        2.7643754536        0.3026180297
  32
 Etot=  -51.4249979848 g norm=  0.00028897
 C         -4.6061954673       -0.4201892693        1.4556603357
 C         -3.4021827802        0.1590634180        0.7787078696
 C         -2.4268657773        0.8374984464        1.6925827621
 C         -3.2222097126        0.0478883736       -0.5348747697
 C         -2.0547521041        0.6076506923       -1.3068044865
 C         -0.7034512113        0.1941095925       -0.7766562508
 C         -0.4135047736       -1.0974697059       -0.4719316085
 O         -1.2738916749       -2.1123621411       -0.6042353006
 C          0.9125833075       -1.5275055522        0.0449327107
 O          1.1296411867       -2.6981012798        0.3218609745
 C          1.9256081706       -0.4732093227        0.1930258153
 C          3.1959717964       -0.8062760531        0.6543274793
 C          4.1677455351        0.1702151101        0.8000969240
 C          3.8760461026        1.4884263711        0.4875587329
 C          2.6128162968        1.8301878109        0.0300226615
 C          1.6301014503        0.8588798360       -0.1224684141
 C          0.2901595042        1.2524778800       -0.6066090809
 O          0.0264209948        2.4285260523       -0.8493485749
 H         -5.1853708210        0.3719638983        1.9278309238
 H         -4.2952514607       -1.1123911384        2.2367345220
 H         -5.2449753824       -0.9456878352        0.7513986808
 H         -2.9517661247        1.3046253573        2.5224133739
 H         -1.8490606768        1.5973864883        1.1725759617
 H         -1.7303838369        0.1071923064        2.1073256288
 H         -3.9869284855       -0.4366011292       -1.1271529686
 H         -2.0804038813        1.7021016625       -1.2909382088
 H         -2.1322853128        0.3029860869       -2.3537076068
 H         -2.1550128605       -1.7954622221       -0.8812272898
 H          3.3978290999       -1.8397472448        0.8928451821
 H          5.1492277619       -0.0987076272        1.1567607624
 H          4.6298047340        2.2517564330        0.5985568032
 H          2.3644388104        2.8513370401       -0.2182605147
  32
 Etot=  -51.4236989502 g norm=  0.00022476
 C         -5.0555514497       -0.7303233655        1.2280168182
 C         -4.1703422866       -0.0342016162        0.2372659292
 C         -4.8667092000        0.3727753017       -1.0254254954
 C         -2.8902965761        0.2028260415        0.5134732863
 C         -1.8972836316        0.9357190238       -0.3457412180
 C         -0.5004514297        0.3820181113       -0.2267962116
 C         -0.2425700776       -0.9445268481       -0.3664667141
 O         -1.1778059120       -1.8682939804       -0.6117587659
 C          1.1281312956       -1.5148943140       -0.2742303864
 O          1.3205685043       -2.7138623080       -0.4123149311
 C          2.2132737214       -0.5576066927       -0.0171950720
 C          3.5228334508       -1.0200158416        0.0793772928
 C          4.5627354429       -0.1370919128        0.3200071525
 C          4.3013786211        1.2160170984        0.4665688286
 C          3.0004865803        1.6858566915        0.3733183882
 C          1.9485471158        0.8098211366        0.1317189052
 C          0.5712800900        1.3391428416        0.0383748247
 O          0.3429421658        2.5388015957        0.1783093851
 H         -4.5171287965       -0.9738184469        2.1397845236
 H         -5.4530308466       -1.6492586597        0.7995407970
 H         -5.9014108294       -0.0932908073        1.4812495613
 H         -5.5040082260        1.2335403399       -0.8260104486
 H         -5.5048559114       -0.4352101057       -1.3775905975
 H         -4.1754572717        0.6450850881       -1.8167183738
 H         -2.4995333688       -0.1022547812        1.4766572862
 H         -1.8514012207        1.9856986886       -0.0380775247
 H         -2.1998931839        0.9229841954       -1.3959698608
 H         -2.0742227769       -1.4794139202       -0.5900633002
 H          3.7002654151       -2.0785887540       -0.0376354213
 H          5.5733960205       -0.5057981822        0.3932631145
 H          5.1078409890        1.9070087386        0.6538849209
 H          2.7747153553        2.7359064925        0.4848354173
  32
 Etot=  -51.4239622815 g norm=  0.00054367
 C         -4.4457276187        0.5635775295        1.8704307999
 C         -3.6023832259        0.7783359762        0.6501647378
 C         -3.5535304163        2.1918718778        0.1456829203
 C         -2.9753975369       -0.2340895951        0.0614840202
 C         -2.1078911509       -0.1364635262       -1.1676254640
 C         -0.6642403271       -0.3361730762       -0.7762689073
 C         -0.1325733417       -1.5692095032       -0.5719237887
 O         -0.7993383512       -2.7187783628       -0.7354473816
 C          1.2750980129       -1.7816544442       -0.1425835853
 O          1.7205763433       -2.9093893074        0.0128976736
 C          2.0788969421       -0.5707939883        0.0725536071
 C          3.4028483308       -0.6938781075        0.4848565925
 C          4.1812976699        0.4334330181        0.6893475820
 C          3.6417425641        1.6933092241        0.4834101126
 C          2.3239635005        1.8258802365        0.0743320792
 C          1.5326027948        0.7020332304       -0.1343083368
 C          0.1304468549        0.8733721218       -0.5692061281
 O         -0.3395101900        1.9934134813       -0.7538177426
 H         -5.4635473643        0.9017620328        1.6817528390
 H         -4.0510592962        1.1463917624        2.7016817589
 H         -4.4706171364       -0.4837960830        2.1594558486
 H         -2.5325797014        2.4907525052       -0.0854014659
 H         -3.9526592669        2.8738136452        0.8912207862
 H         -4.1480923044        2.2934988958       -0.7615522723
 H         -3.0453125989       -1.2209084069        0.5004565127
 H         -2.2030014892        0.8501783000       -1.6175847043
 H         -2.4178220263       -0.8803275794       -1.9057934032
 H         -1.7057964213       -2.5721060700       -1.0558268548
 H          3.8001310059       -1.6863558844        0.6364947207
 H          5.2060471440        0.3272584213        1.0078376629
 H          4.2446680435        2.5735369237        0.6406894961
 H          1.8845179439        2.7980542928       -0.0921060008
  32
 Etot=  -51.4239706408 g norm=  0.00029301
 C         -4.3809709083        0.9801854740        1.8959712341
 C         -3.5757177682        0.9563519823        0.6320459043
 C         -3.5421199602        2.2488576913       -0.1316661593
 C         -2.9644557988       -0.1517225196        0.2279953340
 C         -2.1262425455       -0.2907475676       -1.0171091151
 C         -0.6754288948       -0.4246201897       -0.6239892997
 C         -0.1420157785       -1.6042502005       -0.2132286792
 O         -0.8157316820       -2.7598391604       -0.1518426447
 C          1.2761410119       -1.7462626029        0.2101573784
 O          1.7267880791       -2.8335259490        0.5408038885
 C          2.0826679041       -0.5182784497        0.2025196882
 C          3.4135003197       -0.5724371020        0.6074085059
 C          4.1927483076        0.5728079284        0.6105914433
 C          3.6471731442        1.7817768775        0.2085576061
 C          2.3234160091        1.8451316015       -0.1979122109
 C          1.5312874653        0.7026764658       -0.2056820078
 C          0.1238331156        0.7993061683       -0.6464696372
 O         -0.3470486249        1.8703686686       -1.0211883740
 H         -5.4022698943        1.2900626745        1.6802846293
 H         -3.9552232305        1.7015569698        2.5924161766
 H         -4.4023353705        0.0045634451        2.3744330350
 H         -2.5268100908        2.4989699221       -0.4345691512
 H         -3.9300562818        3.0595544141        0.4784781849
 H         -4.1536791433        2.1762512994       -1.0304052284
 H         -3.0216708740       -1.0376985088        0.8471067848
 H         -2.2277616589        0.5959773587       -1.6403261911
 H         -2.4545176392       -1.1565995368       -1.5975660220
 H         -1.7314112103       -2.6638817076       -0.4654577376
 H          3.8151353924       -1.5262594474        0.9148883489
 H          5.2228274216        0.5199613769        0.9252869576
 H          4.2501958168        2.6758530240        0.2098780760
 H          1.8796608055        2.7765339542       -0.5165802245
  32
 Etot=  -51.4239770828 g norm=  0.00028642
 C         -4.4835507366        0.9091580384        1.7160487558
 C         -3.6564947022        0.8884282835        0.4664681489
 C         -3.6593371422        2.1631617498       -0.3276059920
 C         -2.9942480495       -0.2025705919        0.0981190496
 C         -2.1315996549       -0.3337226240       -1.1308906460
 C         -0.6866731270       -0.4524392167       -0.7135774033
 C         -0.1411465170       -1.6309043709       -0.3157201167
 O         -0.7979511198       -2.7973138220       -0.2830252169
 C          1.2736530758       -1.7593126756        0.1229877330
 O          1.7364043038       -2.8453334809        0.4407200168
 C          2.0623248276       -0.5199415739        0.1442527536
 C          3.3905259022       -0.5628781265        0.5589871949
 C          4.1532886257        0.5929553951        0.5899718073
 C          3.5933554162        1.8015630049        0.2069677585
 C          2.2721027280        1.8538166738       -0.2092209547
 C          1.4965910554        0.7005694137       -0.2454671371
 C          0.0917353111        0.7851370372       -0.6975945360
 O         -0.3932056309        1.8566856672       -1.0525995605
 H         -5.5148650751        1.1622989084        1.4747949521
 H         -4.1054444680        1.6703645323        2.3974548881
 H         -4.4659510266       -0.0523875654        2.2223224548
 H         -2.6449074780        2.4613076823       -0.5881977398
 H         -4.1193952909        2.9646460783        0.2434338067
 H         -4.2217924887        2.0364782438       -1.2520565914
 H         -3.0260346166       -1.0775148508        0.7347052542
 H         -2.2315079243        0.5521774225       -1.7554481952
 H         -2.4405009545       -1.2028174164       -1.7173962173
 H         -1.7122813965       -2.7089478881       -0.6027314083
 H          3.8031242837       -1.5165393131        0.8521736394
 H          5.1813244096        0.5487803559        0.9125951286
 H          4.1833248777        2.7040050528        0.2305917752
 H          1.8174817456        2.7847312018       -0.5129447386
  32
 Etot=  -51.4249720887 g norm=  0.00024426
 C         -4.5681301596       -0.3117049789        1.5281441979
 C         -3.3747062988        0.2340754400        0.8060805192
 C         -2.3804576689        0.9452164182        1.6737215173
 C         -3.2195268329        0.0695864798       -0.5048362569
 C         -2.0621569546        0.5909428540       -1.3181642441
 C         -0.7071421523        0.1741117604       -0.7998417839
 C         -0.4241576472       -1.1166461768       -0.4853469651
 O         -1.2944176283       -2.1254542771       -0.5972447653
 C          0.9048249094       -1.5528672159        0.0188791465
 O          1.1195682715       -2.7247927403        0.2920273933
 C          1.9226614044       -0.5024097694        0.1607389368
 C          3.1913202428       -0.8387162473        0.6246830687
 C          4.1670111945        0.1343237167        0.7667013430
 C          3.8813724885        1.4521684560        0.4468602837
 C          2.6204058845        1.7969302984       -0.0145675291
 C          1.6335467973        0.8292559388       -0.1627540249
 C          0.2964269241        1.2262647450       -0.6521321692
 O          0.0430159322        2.4000745975       -0.9161224348
 H         -5.2215167537       -0.8635387263        0.8582429279
 H         -5.1358288957        0.5019260073        1.9771320770
 H         -4.2454049773       -0.9719804626        2.3316952662
 H         -1.8087605161        1.6800525366        1.1127628546
 H         -1.6798009677        0.2294932116        2.1060782757
 H         -2.8887386424        1.4491503104        2.4923318175
 H         -3.9967277149       -0.4349390687       -1.0629506413
 H         -2.0732951601        1.6855336231       -1.3342348346
 H         -2.1650780005        0.2556738840       -2.3533624359
 H         -2.1758715118       -1.8053748807       -0.8679150641
 H          3.3883044622       -1.8718899771        0.8684946188
 H          5.1468438559       -0.1371903831        1.1260027418
 H          4.6380199047        2.2128134778        0.5562637325
 H          2.3768219054        2.8176740624       -0.2690236239
  32
 Etot=  -51.4249980772 g norm=  0.00028163
 C         -4.7329529663       -0.3080596327        1.1633973813
 C         -3.4976956520        0.2193076088        0.5003136813
 C         -2.5570320359        0.9542918691        1.4067431404
 C         -3.2641729433        0.0186359568       -0.7941092216
 C         -2.0626428547        0.5202409720       -1.5536221743
 C         -0.7367715933        0.1437612089       -0.9386468282
 C         -0.4655766469       -1.1239269936       -0.5330740939
 O         -1.3252278357       -2.1435332482       -0.6298458144
 C          0.8364768460       -1.5193968928        0.0658164567
 O          1.0389387089       -2.6696416409        0.4265735311
 C          1.8439934992       -0.4567527266        0.1905731448
 C          3.0901107858       -0.7572150093        0.7333762115
 C          4.0562118742        0.2275814350        0.8595996509
 C          3.7828287638        1.5217483210        0.4461630090
 C          2.5438025127        1.8310429290       -0.0933006386
 C          1.5671873613        0.8509335648       -0.2273706089
 C          0.2534185199        1.2100735853       -0.8016245771
 O          0.0071405574        2.3655272577       -1.1422651035
 H         -5.3285994131        0.5172915208        1.5504469200
 H         -4.4602438057       -0.9418048431        2.0058563719
 H         -5.3426603912       -0.8824122440        0.4716904639
 H         -3.1134309924        1.4786400526        2.1801178132
 H         -1.9526138420        1.6746564487        0.8615726995
 H         -1.8834003976        0.2512139041        1.8990952708
 H         -4.0076569342       -0.5008131752       -1.3837769517
 H         -2.0842684976        1.6130240359       -1.6171359487
 H         -2.0976830652        0.1412640460       -2.5783643615
 H         -2.1942909827       -1.8428013728       -0.9585487518
 H          3.2781824709       -1.7724915095        1.0488600623
 H          5.0190233697       -0.0162377118        1.2795254796
 H          4.5319116756        2.2915719828        0.5425896213
 H          2.3097482601        2.8331411900       -0.4203796703
  32
 Etot=  -51.4237346923 g norm=  0.00029884
 C         -5.1258576815       -0.4791004677        1.3175642547
 C         -4.2124643810        0.1693333101        0.3243357243
 C         -4.8769591518        0.7976744623       -0.8669634099
 C         -2.8938819695        0.1923436087        0.4968424178
 C         -1.9252653052        0.8590653903       -0.4432315654
 C         -0.5201134559        0.3366629861       -0.3077421234
 C         -0.2414788112       -0.9895098944       -0.4036287358
 O         -1.1623471620       -1.9344470313       -0.6239982208
 C          1.1362847172       -1.5366448921       -0.2854233529
 O          1.3490104420       -2.7351507636       -0.3960370814
 C          2.2028587696       -0.5574235992       -0.0326029916
 C          3.5156365887       -0.9992342617        0.1065402578
 C          4.5382600119       -0.0960785261        0.3461832436
 C          4.2565245918        1.2571457877        0.4471845658
 C          2.9524770488        1.7067507634        0.3093984590
 C          1.9174285471        0.8101263825        0.0701866021
 C          0.5362183260        1.3182244120       -0.0707179660
 O          0.2918891462        2.5201706173        0.0101793361
 H         -4.5680056107       -0.9295059127        2.1341966476
 H         -5.7233691634       -1.2489772320        0.8311272797
 H         -5.8109235655        0.2607564075        1.7292470367
 H         -4.6227849908        1.8547414176       -0.9298660900
 H         -5.9566508850        0.7032367049       -0.7967230257
 H         -4.5510056024        0.3240810606       -1.7924447781
 H         -2.4590736625       -0.2396267411        1.3887702867
 H         -1.8916179813        1.9347782095       -0.2394882620
 H         -2.2621936917        0.7422896204       -1.4778853737
 H         -2.0630289249       -1.5600920408       -0.6349346523
 H          3.7095096818       -2.0581138296        0.0235716328
 H          5.5514853613       -0.4490875308        0.4536565740
 H          5.0497045727        1.9638282187        0.6328562779
 H          2.7108145932        2.7565453196        0.3838521056
  32
 Etot=  -51.4237610090 g norm=  0.00035202
 C         -5.1309653563       -0.3464170422       -1.3155754211
 C         -4.2143338578        0.2345153284       -0.2842630562
 C         -4.8757708795        0.8014465866        0.9390037286
 C         -2.8948476697        0.2494174110       -0.4502106453
 C         -1.9218030763        0.8476508949        0.5306890798
 C         -0.5207927867        0.3230930905        0.3640079824
 C         -0.2536746314       -1.0089615166        0.3663252830
 O         -1.1831814804       -1.9587804596        0.5186204003
 C          1.1190922769       -1.5584502292        0.2083068860
 O          1.3199004421       -2.7639337134        0.2261631822
 C          2.1954842613       -0.5731684517        0.0330067431
 C          3.5050164038       -1.0153037902       -0.1333133952
 C          4.5366977468       -0.1061575252       -0.3009348525
 C          4.2672077447        1.2532791895       -0.3023212395
 C          2.9664151826        1.7032225480       -0.1369369578
 C          1.9225106911        0.8007806567        0.0309941779
 C          0.5449861988        1.3095499203        0.2026591528
 O          0.3118255176        2.5163983890        0.2096357309
 H         -5.7434038075       -1.1305255877       -0.8727686748
 H         -4.5747330339       -0.7629371046       -2.1511552195
 H         -5.8017549711        0.4244231715       -1.6925502509
 H         -4.6034788849        0.2344992349        1.8286328103
 H         -5.9564101119        0.7743699237        0.8362406793
 H         -4.5662820574        1.8331100285        1.0967945700
 H         -2.4624447331       -0.1368403693       -1.3638712469
 H         -2.2615743597        0.6692736140        1.5555412820
 H         -1.8781965383        1.9337182791        0.3949815792
 H         -2.0797370703       -1.5765372184        0.5596969128
 H          3.6893381233       -2.0791201093       -0.1276788779
 H          5.5473746686       -0.4594230175       -0.4294983203
 H          5.0671501131        1.9647020352       -0.4323058846
 H          2.7344147857        2.7578340026       -0.1344673932
  32
 Etot=  -51.4236199302 g norm=  0.00020312
 C         -5.0449555232       -0.5316906236        1.3888006808
 C         -4.1915391316        0.1062499315        0.3330158499
 C         -4.9530974330        0.5875192073       -0.8638913423
 C         -2.8780293862        0.2315719825        0.4981666568
 C         -1.9091095252        0.8871440390       -0.4499625110
 C         -0.5083734195        0.3521483833       -0.3051613834
 C         -0.2409148573       -0.9773356267       -0.3859685651
 O         -1.1677715912       -1.9169143031       -0.6017567172
 C          1.1318250848       -1.5344840043       -0.2531181831
 O          1.3344216344       -2.7360442476       -0.3459672443
 C          2.2060289913       -0.5612320938       -0.0099370781
 C          3.5148065017       -1.0120232471        0.1382763510
 C          4.5443881899       -0.1141966275        0.3679670216
 C          4.2736282171        1.2425357997        0.4503543197
 C          2.9736715516        1.7010578180        0.3038556884
 C          1.9318400330        0.8098424980        0.0741148327
 C          0.5550916866        1.3272674781       -0.0748647746
 O          0.3204416915        2.5319311415       -0.0079076861
 H         -5.5699296028       -1.3941222044        0.9803433494
 H         -5.7961278214        0.1753921579        1.7371201146
 H         -4.4500988412       -0.8542261390        2.2387285669
 H         -5.5757836498        1.4344454166       -0.5787256542
 H         -5.6137989673       -0.1971431166       -1.2283541373
 H         -4.3031136479        0.9065066715       -1.6717288333
 H         -2.4327797899       -0.1157754970        1.4225397027
 H         -1.8640561459        1.9621404095       -0.2463695325
 H         -2.2355455604        0.7694842262       -1.4869666040
 H         -2.0653535774       -1.5354623406       -0.6281648076
 H          3.6999711449       -2.0734908906        0.0695476444
 H          5.5545388919       -0.4739197600        0.4818996639
 H          5.0722549760        1.9450031488        0.6287458520
 H          2.7406645478        2.7537146366        0.3647864534
  32
 Etot=  -51.4239584417 g norm=  0.00025817
 C         -4.5237114263        0.2632189448       -1.7347480300
 C         -3.6413892296        0.6742064001       -0.5949962053
 C         -3.5864407164        2.1506683078       -0.3259699007
 C         -2.9849736556       -0.2288596902        0.1248646941
 C         -2.0722373552        0.0658572775        1.2877948303
 C         -0.6453468257       -0.1999603056        0.8752422611
 C         -0.1152562389       -1.4502738085        0.8612435250
 O         -0.7666440233       -2.5543618054        1.2479920287
 C          1.2750519110       -1.7339021470        0.4165849045
 O          1.7253071911       -2.8701142550        0.4489251619
 C          2.0557018817       -0.5806868184       -0.0518321077
 C          3.3568685256       -0.7757044158       -0.5064893455
 C          4.1119327471        0.2966088217       -0.9525377599
 C          3.5719142281        1.5730510944       -0.9466716711
 C          2.2773702359        1.7770962851       -0.4948892697
 C          1.5092740036        0.7088558974       -0.0457728253
 C          0.1311569040        0.9554460776        0.4280622674
 O         -0.3354389000        2.0918486517        0.4457040011
 H         -5.5353708547        0.6312373721       -1.5716453361
 H         -4.5556920873       -0.8174931003       -1.8464256903
 H         -4.1581110202        0.7000872569       -2.6631328171
 H         -2.5603641968        2.4853065720       -0.1835146651
 H         -4.1488371559        2.3948691689        0.5747591547
 H         -4.0177753539        2.7032597672       -1.1559670830
 H         -3.0619147755       -1.2736368980       -0.1473827632
 H         -2.3511553142       -0.5466537890        2.1487321847
 H         -2.1527921838        1.1130831008        1.5738374735
 H         -1.6601033779       -2.3550324990        1.5765095142
 H          3.7547594048       -1.7794116616       -0.5003767323
 H          5.1191006918        0.1350083505       -1.3022567595
 H          4.1567164072        2.4108472273       -1.2921285871
 H          1.8386687898        2.7636863886       -0.4801488709
  32
 Etot=  -51.4249874750 g norm=  0.00061044
 C         -4.6681517400       -0.6162166428        1.1787125859
 C         -3.4344957413        0.0507949373        0.6523150078
 C         -2.4445347682        0.4675097338        1.6978531234
 C         -3.2431942599        0.2269346964       -0.6527567646
 C         -2.0490815547        0.8986637569       -1.2810422900
 C         -0.7152700001        0.3506822831       -0.8363614770
 C         -0.4636117629       -0.9831826052       -0.7853575218
 O         -1.3504893085       -1.9287906037       -1.1131921324
 C          0.8447620894       -1.5422341998       -0.3540310584
 O          1.0229187591       -2.7500548347       -0.2930982463
 C          1.8899808632       -0.5653735890       -0.0175620238
 C          3.1505698518       -1.0172101648        0.3623643269
 C          4.1527525846       -0.1150306770        0.6799235965
 C          3.9009079363        1.2465964274        0.6239722334
 C          2.6472513322        1.7059931561        0.2508983913
 C          1.6347671614        0.8105001971       -0.0737838453
 C          0.3065121702        1.3277029535       -0.4645978083
 O          0.0752443864        2.5352506074       -0.4707107506
 H         -4.3937277376       -1.4822006855        1.7793545172
 H         -5.3223821266       -0.9372672294        0.3730997623
 H         -5.2173390433        0.0705172544        1.8211029962
 H         -2.9606310842        0.7587227094        2.6095125289
 H         -1.8304769816        1.2995730852        1.3623837883
 H         -1.7828702494       -0.3655087763        1.9405457700
 H         -4.0206323908       -0.0798625123       -1.3395277829
 H         -2.0483250349        1.9674549567       -1.0428493348
 H         -2.1191386712        0.8158645143       -2.3688877512
 H         -2.2211899815       -1.5396133469       -1.3239615257
 H          3.3208853002       -2.0826953429        0.4004055018
 H          5.1267887072       -0.4753314806        0.9702531158
 H          4.6783118063        1.9524647887        0.8698121237
 H          2.4296080332        2.7625353222        0.2022928820
  32
 Etot=  -51.4236944973 g norm=  0.00029151
 C         -5.0342276664       -0.5593778836        1.4117118175
 C         -4.1618910252        0.0420789917        0.3500130020
 C         -4.8706632374        0.3123569008       -0.9419219699
 C         -2.8819555894        0.3147585361        0.5923008498
 C         -1.8961682647        0.9623138043       -0.3406019946
 C         -0.5054070099        0.3974965486       -0.2020310529
 C         -0.2717683529       -0.9403999917       -0.2386364564
 O         -1.2283056813       -1.8626720242       -0.3885785295
 C          1.0915317395       -1.5253486149       -0.1332859899
 O          1.2641106142       -2.7335702886       -0.1984701634
 C          2.1946139620       -0.5707836392        0.0459329595
 C          3.4964971509       -1.0475864049        0.1714464250
 C          4.5524235220       -0.1678253329        0.3447808161
 C          4.3151858866        1.1967502127        0.3924614024
 C          3.0224288061        1.6813137859        0.2667018678
 C          1.9544685044        0.8085250967        0.0932562672
 C          0.5864951556        1.3539893449       -0.0366317175
 O          0.3818674262        2.5655984668       -0.0055869917
 H         -5.4303833511       -1.5171296710        1.0774457950
 H         -5.8814079881        0.0948810032        1.6107432134
 H         -4.4863536607       -0.7114280711        2.3375996839
 H         -5.5504280154        1.1535183434       -0.8120531719
 H         -5.4675158499       -0.5515432542       -1.2280311309
 H         -4.1902990029        0.5535122459       -1.7523515376
 H         -2.4831151777        0.1085628087        1.5783277696
 H         -1.8298886482        2.0324493038       -0.1182702857
 H         -2.2177113348        0.8695923349       -1.3810565816
 H         -2.1163994049       -1.4534163708       -0.3732151571
 H          3.6553719284       -2.1147571523        0.1317115657
 H          5.5568246880       -0.5478973853        0.4425706806
 H          5.1341459941        1.8853815984        0.5269409726
 H          2.8153650353        2.7405878122        0.2999499970
  32
 Etot=  -51.4236687500 g norm=  0.00032384
 C         -5.0932572039       -0.4312717051        1.4366977290
 C         -4.1992775156        0.1506270389        0.3848807791
 C         -4.8907531053        0.5901058776       -0.8722229086
 C         -2.8910650077        0.2855935572        0.5868546954
 C         -1.9169454883        0.9093499250       -0.3743371513
 C         -0.5190715308        0.3679291837       -0.2278489075
 C         -0.2660974537       -0.9668416057       -0.2355870240
 O         -1.2076656633       -1.9074480100       -0.3688502796
 C          1.1049454038       -1.5298339633       -0.1114115566
 O          1.2947012931       -2.7366367792       -0.1478787068
 C          2.1935861654       -0.5561331445        0.0526660582
 C          3.5011246900       -1.0117274442        0.1970232222
 C          4.5437026967       -0.1134533471        0.3551465062
 C          4.2873536116        1.2484314795        0.3685165304
 C          2.9887944286        1.7117733150        0.2244327059
 C          1.9340149805        0.8202625743        0.0665594511
 C          0.5590809645        1.3431558796       -0.0809802382
 O          0.3375703877        2.5521834766       -0.0779861271
 H         -4.5348252319       -0.6958828732        2.3305410966
 H         -5.5911750945       -1.3222245992        1.0566829250
 H         -5.8648818861        0.2884448956        1.7058017465
 H         -5.0211643152        1.6717864661       -0.8646244966
 H         -5.8719046562        0.1295873641       -0.9479337156
 H         -4.3177237519        0.3352705397       -1.7609012547
 H         -2.4666440163       -0.0131738922        1.5371519430
 H         -1.8637311095        1.9888000559       -0.1977134330
 H         -2.2540255406        0.7737576626       -1.4061082365
 H         -2.1023979194       -1.5158357492       -0.3762108299
 H          3.6750165867       -2.0772202472        0.1825803784
 H          5.5526138408       -0.4769550189        0.4678233332
 H          5.0959737157        1.9513865344        0.4910612025
 H          2.7670650442        2.7685775455        0.2305219983
  32
 Etot=  -51.4239566132 g norm=  0.00030914
 C         -4.3996052934        0.4356299967        1.9549658214
 C         -3.5625127428        0.7418397380        0.7499877730
 C         -3.5025767124        2.1914078066        0.3624902256
 C         -2.9483850867       -0.2247339242        0.0767460673
 C         -2.0841635601       -0.0350636877       -1.1437158425
 C         -0.6408254413       -0.2785166546       -0.7761245157
 C         -0.1226369543       -1.5294346888       -0.6690493606
 O         -0.8060724630       -2.6552183781       -0.9101294352
 C          1.2878528889       -1.7893876150       -0.2771022992
 O          1.7252881406       -2.9296862430       -0.2254764684
 C          2.1046993450       -0.6078171138        0.0313899729
 C          3.4295679786       -0.7769640768        0.4239825849
 C          4.2200659424        0.3222720804        0.7165671273
 C          3.6916841605        1.5998377471        0.6189712837
 C          2.3733518301        1.7781146094        0.2292633267
 C          1.5699659455        0.6828485069       -0.0669120950
 C          0.1677980217        0.9027364180       -0.4796268483
 O         -0.2914411545        2.0385676049       -0.5716350164
 H         -3.9870977983        0.9365264395        2.8299139722
 H         -4.4403121975       -0.6324080613        2.1514865946
 H         -5.4128041631        0.8062653557        1.8072008958
 H         -4.0990282663        2.3719008525       -0.5310316557
 H         -2.4797900414        2.4994364854        0.1524808789
 H         -3.8935739962        2.8136229371        1.1624414266
 H         -3.0264315216       -1.2433448551        0.4342374758
 H         -2.1717296362        0.9856622824       -1.5118038837
 H         -2.4023314850       -0.7140217092       -1.9389825035
 H         -1.7141070091       -2.4731258482       -1.2074314749
 H          3.8174904415       -1.7822936862        0.4917389526
 H          5.2452767979        0.1804896146        1.0192972140
 H          4.3038305090        2.4583848458        0.8452133838
 H          1.9427620189        2.7648239990        0.1458614257
  32
 Etot=  -51.4239647943 g norm=  0.00027666
 C         -4.5208304750        0.3716431358       -1.8117264462
 C         -3.6462036380        0.7160266192       -0.6445550458
 C         -3.6154856518        2.1705225953       -0.2720849132
 C         -2.9735245707       -0.2231960847        0.0111364188
 C         -2.0663518928        0.0075353297        1.1926188469
 C         -0.6368596969       -0.2343629971        0.7749906470
 C         -0.1014784612       -1.4809219937        0.7104402189
 O         -0.7527968237       -2.6036952089        1.0390749104
 C          1.2953947644       -1.7384058466        0.2707399361
 O          1.7505672021       -2.8728709360        0.2582060687
 C          2.0771421698       -0.5618934539       -0.1331101001
 C          3.3882223352       -0.7302095995       -0.5698939166
 C          4.1439593088        0.3637612360       -0.9581877590
 C          3.5941592720        1.6352071108       -0.9133648778
 C          2.2901929085        1.8128740767       -0.4778555072
 C          1.5218486785        0.7229530513       -0.0848183915
 C          0.1354507271        0.9421404407        0.3786589268
 O         -0.3394650224        2.0737683860        0.4336642129
 H         -4.5296102243       -0.6982616137       -2.0020045302
 H         -4.1640171560        0.8828982814       -2.7049875652
 H         -5.5402031588        0.7051670292       -1.6232541917
 H         -4.1570957494        2.3380392631        0.6581821164
 H         -4.0805676697        2.7706729564       -1.0488900137
 H         -2.5923725066        2.5160389090       -0.1334101029
 H         -3.0313406889       -1.2479631736       -0.3325438337
 H         -2.3480717000       -0.6508121424        2.0183812453
 H         -2.1493373520        1.0377242058        1.5341873325
 H         -1.6531758050       -2.4222177721        1.3592607353
 H          3.7929160656       -1.7308547095       -0.5964838148
 H          5.1587587526        0.2226322762       -1.2944409839
 H          4.1788284768        2.4896079519       -1.2152951562
 H          1.8437550379        2.7950788470       -0.4339446192
  32
 Etot=  -51.4237018047 g norm=  0.00037583
 C         -5.0965809162       -0.3974656950       -1.4138414642
 C         -4.1957030240        0.1686321831       -0.3569672794
 C         -4.8765023361        0.4380729394        0.9506660752
 C         -2.9139200110        0.4200444871       -0.6141842445
 C         -1.9074490169        1.0363842533        0.3167270944
 C         -0.5268017145        0.4511319081        0.1623707746
 C         -0.3154485161       -0.8907722001        0.1391031976
 O         -1.2865121424       -1.8044732145        0.2411486539
 C          1.0384501795       -1.4928012135        0.0077198619
 O          1.1873107420       -2.7056058347       -0.0156687999
 C          2.1620880153       -0.5498089766       -0.0839214971
 C          3.4595350530       -1.0422789333       -0.1945464974
 C          4.5347564184       -0.1732783700       -0.2821027089
 C          4.3210378956        1.1958981245       -0.2612790251
 C          3.0326059810        1.6958125322       -0.1528343379
 C          1.9456475811        0.8339092003       -0.0626365465
 C          0.5828731932        1.3954529695        0.0526050626
 O          0.3969775307        2.6105259411        0.0574777102
 H         -4.5727766310       -0.5232141390       -2.3574600256
 H         -5.9463411339        0.2649617328       -1.5706069023
 H         -5.4871577414       -1.3641286699       -1.0986232353
 H         -5.4444548667        1.3654110112        0.8795093959
 H         -4.1767037002        0.5383125952        1.7750422395
 H         -5.5769675480       -0.3621926997        1.1799535710
 H         -2.5324490759        0.2236069810       -1.6090710802
 H         -2.2230787753        0.9376071652        1.3586183616
 H         -1.8242594098        2.1084173968        0.1092584989
 H         -2.1689540278       -1.3812995440        0.2417246115
 H          3.5996422833       -2.1127156733       -0.2094862599
 H          5.5358224050       -0.5650943304       -0.3668138612
 H          5.1551525264        1.8761151818       -0.3291599586
 H          2.8436911462        2.7588354078       -0.1351685844
  32
 Etot=  -51.4237223970 g norm=  0.00032638
 C         -5.1481302483       -0.6667120028        1.0794971882
 C         -4.2096239656        0.0996637663        0.1998921261
 C         -4.8315292739        0.7592391725       -0.9979262530
 C         -2.9125741113        0.1953564646        0.4821589520
 C         -1.9118628637        0.9815951795       -0.3189862728
 C         -0.5190788956        0.4118589019       -0.2530289576
 C         -0.2731877941       -0.9052390836       -0.4779053044
 O         -1.2191615326       -1.8056077427       -0.7674968759
 C          1.0936170060       -1.4901607488       -0.4388587886
 O          1.2745560697       -2.6800824869       -0.6516252108
 C          2.1900011213       -0.5580352807       -0.1397953441
 C          3.4970733088       -1.0347202904       -0.0908861881
 C          4.5473083424       -0.1753759516        0.1873836808
 C          4.2988602099        1.1681815514        0.4193677542
 C          3.0005401878        1.6519703144        0.3742903278
 C          1.9383245417        0.7996524256        0.0956194005
 C          0.5641502735        1.3433142677        0.0543838113
 O          0.3473559523        2.5339543257        0.2695240888
 H         -5.6344937868       -1.4576046834        0.5100759525
 H         -5.9261689420       -0.0045509783        1.4565860041
 H         -4.6281449934       -1.1102410733        1.9243848487
 H         -5.8869146833        0.5125089063       -1.0637851487
 H         -4.3478160351        0.4440023230       -1.9211016768
 H         -4.7332492952        1.8413427598       -0.9266000072
 H         -2.5236026976       -0.2660331599        1.3809028035
 H         -1.8569401259        2.0075025622        0.0607669892
 H         -2.2275515324        1.0463425588       -1.3641465428
 H         -2.1119451891       -1.4124548345       -0.7056178068
 H          3.6643878193       -2.0853113407       -0.2751484460
 H          5.5560979447       -0.5547156440        0.2224609279
 H          5.1135422171        1.8408265195        0.6359347447
 H          2.7847185006        2.6949845723        0.5519367112
  32
 Etot=  -51.4239602189 g norm=  0.00035247
 C         -4.4128158749        0.5174040093        1.9439671858
 C         -3.5741917997        0.7699718708        0.7276130923
 C         -3.5175872487        2.2002413743        0.2739299172
 C         -2.9562260952       -0.2249863594        0.1008482145
 C         -2.0923706126       -0.0900851039       -1.1271118787
 C         -0.6479395757       -0.3090536412       -0.7486386639
 C         -0.1231142398       -1.5507831821       -0.5826665780
 O         -0.7988946464       -2.6907277935       -0.7735034366
 C          1.2869841351       -1.7843336882       -0.1727342646
 O          1.7277818156       -2.9187716493       -0.0583161638
 C          2.0991457868       -0.5852257657        0.0740959681
 C          3.4253371589       -0.7284690942        0.4725251343
 C          4.2112832295        0.3876410590        0.7078727518
 C          3.6771349153        1.6562961982        0.5463127303
 C          2.3575357703        1.8088333225        0.1500802781
 C          1.5586258743        0.6964367849       -0.0887760150
 C          0.1547897356        0.8890353346       -0.5092833168
 O         -0.3102187367        2.0168755895       -0.6549038517
 H         -4.4493603022       -0.5402649348        2.1910564946
 H         -5.4272091082        0.8759284527        1.7758752157
 H         -4.0050973509        1.0613648364        2.7950956682
 H         -2.4962209928        2.4997355407        0.0453355691
 H         -3.9057710472        2.8578475886        1.0466652214
 H         -4.1185973333        2.3387570764       -0.6242970175
 H         -3.0311155074       -1.2260077001        0.5056923847
 H         -2.1847168466        0.9113519148       -1.5437050849
 H         -2.4078878386       -0.8076491378       -1.8886918146
 H         -1.7068067778       -2.5286495514       -1.0824341741
 H          3.8178729646       -1.7273853264        0.5901363554
 H          5.2376814932        0.2658772274        1.0152603330
 H          4.2858277273        2.5278453834        0.7277331001
 H          1.9221447598        2.7881947591        0.0185406161
  32
 Etot=  -51.4236682131 g norm=  0.00032315
 C         -5.1076026642       -0.5543903899       -1.1473552464
 C         -4.1844476291        0.0624845310       -0.1395350285
 C         -4.8214018877        0.3447880641        1.1879574624
 C         -2.9220975522        0.3475732032       -0.4520610542
 C         -1.9057621700        1.0285877638        0.4209083803
 C         -0.5235584164        0.4420012364        0.2852855838
 C         -0.3024893903       -0.8955872322        0.3724432088
 O         -1.2658263865       -1.8025382833        0.5664469907
 C          1.0542027885       -1.4977415412        0.2776604178
 O          1.2133680741       -2.7062332792        0.3671121480
 C          2.1682216307       -0.5594158310        0.0803603448
 C          3.4677587969       -1.0512524470       -0.0055547768
 C          4.5340296772       -0.1869939779       -0.1924714611
 C          4.3090432829        1.1764758932       -0.2969620219
 C          3.0184650589        1.6757411860       -0.2132070779
 C          1.9405333199        0.8188277695       -0.0231987910
 C          0.5754784194        1.3796330378        0.0663092368
 O          0.3791702649        2.5884716824       -0.0383770893
 H         -5.9775326175        0.0842017713       -1.2913760049
 H         -5.4644647135       -1.5201987561       -0.7930443251
 H         -4.6145854028       -0.6940376463       -2.1053384718
 H         -5.5335124238       -0.4388264527        1.4356711954
 H         -5.3673258721        1.2862297017        1.1375748536
 H         -4.0956385626        0.4231599295        1.9918935561
 H         -2.5685253630        0.1303671217       -1.4526327324
 H         -2.2061336945        0.9981748678        1.4711852412
 H         -1.8329787010        2.0841079319        0.1390324766
 H         -2.1510563321       -1.3867692722        0.5358171155
 H          3.6165489669       -2.1174002308        0.0774791689
 H          5.5368726204       -0.5782154314       -0.2566702997
 H          5.1363936374        1.8526224767       -0.4426219434
 H          2.8214276173        2.7345036997       -0.2921155367
  32
 Etot=  -51.4249894196 g norm=  0.00041588
 C         -4.6882541135       -0.0852715374        1.3812431858
 C         -3.4695803046        0.3279037289        0.6144871473
 C         -2.5225320310        1.2172097152        1.3620147884
 C         -3.2553289106       -0.0938124027       -0.6293229378
 C         -2.0721247766        0.2763127210       -1.4866833551
 C         -0.7318182462        0.0268077471       -0.8393531692
 C         -0.4417517674       -1.1420558308       -0.2110410276
 O         -1.2930211874       -2.1672816291       -0.1009327953
 C          0.8725402185       -1.4099170992        0.4304107511
 O          1.0867620106       -2.4659904302        1.0074751072
 C          1.8771858930       -0.3425328157        0.3239758573
 C          3.1384022486       -0.5332413745        0.8813370372
 C          4.1012289575        0.4588896878        0.7942350415
 C          3.8094420604        1.6513770557        0.1511455560
 C          2.5554073511        1.8514848569       -0.4049279757
 C          1.5818866465        0.8622493501       -0.3261792267
 C          0.2515308230        1.1049358530       -0.9228391371
 O         -0.0124959085        2.1771730349       -1.4635562313
 H         -5.2922370558        0.7890594069        1.6193692586
 H         -4.3953618452       -0.5502379850        2.3212895257
 H         -5.2971070087       -0.7848084932        0.8153954706
 H         -3.0724399400        1.8681346540        2.0375634185
 H         -1.9302351868        1.8319715471        0.6890093901
 H         -1.8377732067        0.6159461136        1.9621216942
 H         -4.0032412051       -0.7131600724       -1.1060491503
 H         -2.1079537867        1.3402298517       -1.7425483401
 H         -2.1188488221       -0.2786401650       -2.4273441737
 H         -2.1724240044       -1.9363178328       -0.4582827041
 H          3.3406968275       -1.4704391338        1.3778805801
 H          5.0755101664        0.3005423079        1.2284065131
 H          4.5556130151        2.4268843022        0.0818570105
 H          2.3069281627        2.7732360210       -0.9094817902
  32
 Etot=  -51.4237572528 g norm=  0.00028585
 C         -5.1059973867       -0.4256567916        1.4186075364
 C         -4.2032792748        0.1708396784        0.3838624480
 C         -4.8806790905        0.7605659878       -0.8194119386
 C         -2.8813917639        0.1785941937        0.5284997719
 C         -1.9241442060        0.7898270689       -0.4605036874
 C         -0.5141592597        0.2889107043       -0.2987045006
 C         -0.2241496844       -1.0381865508       -0.3221107203
 O         -1.1374127769       -2.0007087032       -0.4909900055
 C          1.1579334869       -1.5664651271       -0.1734137113
 O          1.3808192973       -2.7672626817       -0.2193220651
 C          2.2157516770       -0.5661174398        0.0276892707
 C          3.5321003287       -0.9885300626        0.1914275563
 C          4.5464586765       -0.0651689745        0.3847235029
 C          4.2526926702        1.2889102242        0.4147438221
 C          2.9451479291        1.7193680088        0.2510957558
 C          1.9183914530        0.8025388664        0.0571994526
 C          0.5332937492        1.2907184987       -0.1139502160
 O          0.2792819982        2.4932994346       -0.1012459382
 H         -5.7728106732        0.3387256394        1.8152751716
 H         -4.5381521703       -0.8531750073        2.2408031317
 H         -5.7231029819       -1.2046951741        0.9731427783
 H         -4.5679677181        1.7929579173       -0.9653143423
 H         -5.9597562727        0.7369311498       -0.7008199169
 H         -4.6239266630        0.2068530499       -1.7218395857
 H         -2.4348027758       -0.2251757890        1.4276493158
 H         -1.8987250023        1.8770042967       -0.3295009817
 H         -2.2670857513        0.6010487354       -1.4826409978
 H         -2.0403098294       -1.6339242612       -0.5276678724
 H          3.7351098738       -2.0485734936        0.1642169306
 H          5.5624808078       -0.4032003521        0.5122465632
 H          5.0390291343        2.0112419893        0.5654127598
 H          2.6944383229        2.7694244391        0.2706766376
  32
 Etot=  -51.4237072494 g norm=  0.00049496
 C         -5.1145964609       -0.5845737571        1.1535919080
 C         -4.2082285379        0.1213043445        0.1897567150
 C         -4.8903922046        0.6106535881       -1.0515978236
 C         -2.9196039204        0.3019768540        0.4692803237
 C         -1.9087328651        1.0366905106       -0.3668466269
 C         -0.5245774401        0.4492539393       -0.2641532945
 C         -0.2965404369       -0.8800333292       -0.4279428870
 O         -1.2521285505       -1.7789089693       -0.6872924096
 C          1.0611189450       -1.4824184019       -0.3469996127
 O          1.2256127073       -2.6837557578       -0.4994139224
 C          2.1687695281       -0.5533959456       -0.0823670378
 C          3.4681409994       -1.0460859865        0.0001919488
 C          4.5288924518       -0.1897388811        0.2458421056
 C          4.2987671330        1.1668537351        0.4112270286
 C          3.0081321092        1.6665791548        0.3330407909
 C          1.9354393566        0.8173233102        0.0869019957
 C          0.5695184809        1.3778858589        0.0110448343
 O          0.3683096765        2.5796195818        0.1728015390
 H         -5.5371753087       -1.4755372498        0.6912960396
 H         -5.9422291564        0.0669129116        1.4289407861
 H         -4.5849718952       -0.8767215159        2.0562950423
 H         -5.4228557042        1.5354631715       -0.8319125814
 H         -5.6215950478       -0.1198459856       -1.3907876917
 H         -4.1937008662        0.8117104191       -1.8598238944
 H         -2.5351672318       -0.0557055066        1.4168329047
 H         -1.8399754330        2.0765415095       -0.0303763922
 H         -2.2112414498        1.0615350663       -1.4170785763
 H         -2.1398875041       -1.3708984886       -0.6567868820
 H          3.6213890107       -2.1065401749       -0.1323952029
 H          5.5316460095       -0.5816555441        0.3075492984
 H          5.1217125167        1.8372716073        0.6014079119
 H          2.8065349443        2.7197838993        0.4598341830
  32
 Etot=  -51.4239663794 g norm=  0.00069901
 C         -4.5296744870        0.5272543848       -1.8077616871
 C         -3.6579399785        0.7976163095       -0.6191599870
 C         -3.6296221267        2.2253893491       -0.1545211953
 C         -2.9851401345       -0.1804047836       -0.0230586778
 C         -2.0805949749       -0.0233803021        1.1722807893
 C         -0.6521923016       -0.2562766814        0.7465709391
 C         -0.1253979388       -1.5021524598        0.6247777548
 O         -0.7849718854       -2.6344314349        0.9002225912
 C          1.2704197250       -1.7486197734        0.1756759033
 O          1.7179531606       -2.8843013553        0.1110830596
 C          2.0601235334       -0.5600494432       -0.1742400824
 C          3.3701038032       -0.7170428367       -0.6181511533
 C          4.1342500861        0.3884479053       -0.9536079525
 C          3.5936928146        1.6602484399       -0.8490029944
 C          2.2902314286        1.8266019282       -0.4072779177
 C          1.5139364787        0.7249949005       -0.0661502467
 C          0.1286901449        0.9320160746        0.4061109412
 O         -0.3394524765        2.0629609410        0.5110524717
 H         -4.1780455414        1.1019857562       -2.6636420166
 H         -5.5518813574        0.8375345652       -1.5967651844
 H         -4.5291192809       -0.5270710730       -2.0714304605
 H         -4.1070147388        2.8721146226       -0.8849144926
 H         -2.6059498982        2.5658542681       -0.0071653578
 H         -4.1588546719        2.3304895158        0.7916533352
 H         -3.0403640073       -1.1816332911       -0.4304957378
 H         -2.3723063545       -0.7230987163        1.9595948202
 H         -2.1548374793        0.9874949750        1.5693033899
 H         -1.6857107753       -2.4621603253        1.2246650624
 H          3.7677977832       -1.7182980530       -0.6909182215
 H          5.1479099477        0.2557316667       -1.2965815619
 H          4.1846865009        2.5236565496       -1.1099201229
 H          1.8510832456        2.8088812929       -0.3173374354
  32
 Etot=  -51.4236858476 g norm=  0.00038830
 C         -5.0685566644       -0.5417726788        1.3692045761
 C         -4.1772336851        0.0471996093        0.3175435923
 C         -4.8693553524        0.3833191250       -0.9691352067
 C         -2.8868984884        0.2684009638        0.5571377114
 C         -1.8978859986        0.9025697439       -0.3810454878
 C         -0.5023172535        0.3580628847       -0.2172792369
 C         -0.2527442048       -0.9773525024       -0.2035326412
 O         -1.1958594838       -1.9174698922       -0.3275214912
 C          1.1160254059       -1.5416459343       -0.0602267696
 O          1.3012048298       -2.7496939971       -0.0625907730
 C          2.2083279553       -0.5678030544        0.0769911808
 C          3.5157099382       -1.0239277399        0.2210865528
 C          4.5618497557       -0.1254955860        0.3524607910
 C          4.3091622415        1.2370984954        0.3402831412
 C          3.0106297989        1.7009570480        0.1976612080
 C          1.9524277148        0.8093061896        0.0654490335
 C          0.5777518572        1.3328418499       -0.0822875462
 O          0.3582445110        2.5422190145       -0.0915415917
 H         -5.4762029316       -1.4926485092        1.0283892470
 H         -5.9066420685        0.1262195175        1.5609622298
 H         -4.5315281104       -0.7053746907        2.2995282293
 H         -5.6853113646       -0.3118389924       -1.1507671507
 H         -4.1952220941        0.3622998210       -1.8208040360
 H         -5.2915030446        1.3857854281       -0.9047249113
 H         -2.4864352517        0.0322098333        1.5355912184
 H         -1.8459328490        1.9793492944       -0.1888047073
 H         -2.2130329125        0.7808170560       -1.4209688062
 H         -2.0899027160       -1.5216996777       -0.3403131367
 H          3.6867580774       -2.0899990067        0.2273168452
 H          5.5707919277       -0.4894450359        0.4636007664
 H          5.1205864964        1.9402251521        0.4418627849
 H          2.7914177899        2.7582856637        0.1859843896
  32
 Etot=  -51.4236979383 g norm=  0.00053645
 C         -5.0887029007       -0.6315174936        1.2107818447
 C         -4.1887751320        0.0525311911        0.2254699245
 C         -4.8717942339        0.4871558508       -1.0359517036
 C         -2.9041878807        0.2630808737        0.5030615877
 C         -1.9030476535        0.9857195382       -0.3548461379
 C         -0.5130794459        0.4136228470       -0.2439514631
 C         -0.2737904935       -0.9169687795       -0.3783154931
 O         -1.2232939592       -1.8298462530       -0.6097509327
 C          1.0901006252       -1.5045861781       -0.2948176769
 O          1.2656718252       -2.7069347379       -0.4262900272
 C          2.1900981419       -0.5599609960       -0.0543594190
 C          3.4944447908       -1.0387173876        0.0321464132
 C          4.5479694596       -0.1680561532        0.2580683508
 C          4.3056049306        1.1890965881        0.3996499274
 C          3.0100539238        1.6752012229        0.3161978838
 C          1.9445963561        0.8115578814        0.0893935057
 C          0.5734709803        1.3581124383        0.0058419270
 O          0.3619203009        2.5612325947        0.1418064603
 H         -5.4943356997       -1.5460169825        0.7804067272
 H         -5.9282233811        0.0164203112        1.4574143346
 H         -4.5593497403       -0.8810319296        2.1262489397
 H         -5.6148119907       -0.2491339742       -1.3334493623
 H         -4.1770566871        0.6354374277       -1.8571379640
 H         -5.3891816402        1.4300609756       -0.8624111565
 H         -2.5171420992       -0.0559136723        1.4632611370
 H         -1.8426028006        2.0340012451       -0.0440226382
 H         -2.2103340002        0.9821022139       -1.4039514126
 H         -2.1143896354       -1.4287632547       -0.5783139139
 H          3.6573305783       -2.0999900966       -0.0809136076
 H          5.5544462413       -0.5495555019        0.3236090703
 H          5.1227200757        1.8706281014        0.5751382609
 H          2.7988383113        2.7286732988        0.4237396080
  32
 Etot=  -51.4237403585 g norm=  0.00026491
 C         -5.1551376405       -0.4774854133        1.2155882058
 C         -4.2231401258        0.1931036889        0.2547204858
 C         -4.8666299682        0.8682600124       -0.9223415357
 C         -2.9064105449        0.1936379827        0.4413722761
 C         -1.9211380528        0.8821821536       -0.4653728663
 C         -0.5205466793        0.3483829964       -0.3278792304
 C         -0.2447816085       -0.9739211409       -0.4726738235
 O         -1.1653663947       -1.9058251230       -0.7438190517
 C          1.1296273436       -1.5302013533       -0.3580033888
 O          1.3397454258       -2.7245729202       -0.5107836360
 C          2.1965336114       -0.5649903151       -0.0574087825
 C          3.5073144793       -1.0154795067        0.0731980462
 C          4.5303027418       -0.1253215835        0.3563385296
 C          4.2507716153        1.2232691763        0.5109526869
 C          2.9486643387        1.6814097381        0.3827894876
 C          1.9135058144        0.7979694171        0.0991081219
 C          0.5347578252        1.3151071484       -0.0327691866
 O          0.2915904442        2.5122744266        0.1030709085
 H         -5.8320338882        0.2574180960        1.6494457443
 H         -4.6113751284       -0.9670033537        2.0192264188
 H         -5.7605986169       -1.2185323974        0.6954810105
 H         -4.5667459840        1.9135074565       -0.9735960602
 H         -5.9487533955        0.8205256019       -0.8462166576
 H         -4.5689077069        0.3924737487       -1.8561400823
 H         -2.4859608833       -0.2735059216        1.3222739046
 H         -1.8841221845        1.9508866867       -0.2277960401
 H         -2.2451106859        0.7989136331       -1.5073360142
 H         -2.0643968728       -1.5281925946       -0.7552616019
 H          3.6992348588       -2.0706178734       -0.0518437583
 H          5.5420375383       -0.4847924336        0.4561535608
 H          5.0439762133        1.9198048009        0.7316035268
 H          2.7088464965        2.7278229970        0.4991871812
  32
 Etot=  -51.4249664538 g norm=  0.00026896
 C         -4.7488695023       -0.7129857181        0.9352276415
 C         -3.5021385524       -0.0086587225        0.4958162576
 C         -2.5604082078        0.3610177973        1.6014206325
 C         -3.2605251679        0.2399246375       -0.7889239365
 C         -2.0504710869        0.9575651327       -1.3295386299
 C         -0.7279885411        0.3888902636       -0.8764007692
 C         -0.4673567060       -0.9440188883       -0.9020018316
 O         -1.3359222777       -1.8728603222       -1.3155438554
 C          0.8326382470       -1.5210036674       -0.4682229788
 O          1.0161419427       -2.7295644741       -0.4711466476
 C          1.8640616453       -0.5600708915       -0.0522526868
 C          3.1217564847       -1.0259276351        0.3209037521
 C          4.1107203282       -0.1384195168        0.7127332680
 C          3.8481942187        1.2221253094        0.7386166920
 C          2.5971242090        1.6950310462        0.3733845440
 C          1.5983717187        0.8146650356       -0.0263797491
 C          0.2735930657        1.3460582697       -0.4102319026
 O          0.0288953563        2.5485519136       -0.3345772003
 H         -5.3345506142       -0.0634008828        1.5839471017
 H         -4.4902067275       -1.6033736398        1.5061403399
 H         -5.3632830577       -1.0028527079        0.0875665859
 H         -1.9038289420       -0.4796761929        1.8305813526
 H         -3.1167035372        0.6041246003        2.5035611380
 H         -1.9387155270        1.2116684826        1.3339301851
 H         -4.0057748211       -0.0367977006       -1.5226645048
 H         -2.0656124806        2.0082807855       -1.0216218136
 H         -2.0819025916        0.9465250080       -2.4222979242
 H         -2.2029179121       -1.4771187258       -1.5294063080
 H          3.3003092077       -2.0904152084        0.2949978326
 H          5.0824939063       -0.5093754421        0.9974605583
 H          4.6150363432        1.9165965486        1.0430719551
 H          2.3714998040        2.7509655818        0.3876696198
  32
 Etot=  -51.4249949157 g norm=  0.00020659
 C         -4.7146429851       -0.1417236218        1.3081474692
 C         -3.4906427151        0.2933623209        0.5626159692
 C         -2.5525928663        1.1664793514        1.3398986450
 C         -3.2638379710       -0.0977611678       -0.6889976476
 C         -2.0736576267        0.2946093496       -1.5263901549
 C         -0.7390364772        0.0401651614       -0.8694680162
 C         -0.4510034334       -1.1369141796       -0.2556396417
 O         -1.2987708551       -2.1674474291       -0.1713602506
 C          0.8560876372       -1.4082045321        0.3987449558
 O          1.0652469409       -2.4688856507        0.9693524094
 C          1.8598016944       -0.3380067342        0.3136808128
 C          3.1171390796       -0.5339986309        0.8780348864
 C          4.0795134841        0.4601452163        0.8095088627
 C          3.7910479923        1.6597559764        0.1782948435
 C          2.5405206431        1.8654466424       -0.3836640746
 C          1.5675457663        0.8744124618       -0.3236235079
 C          0.2408806133        1.1231411060       -0.9261331278
 O         -0.0231594722        2.2040628453       -1.4492462125
 H         -5.3230655457        0.7248064527        1.5628556755
 H         -4.4280485584       -0.6291756502        2.2387076287
 H         -5.3164088670       -0.8288221566        0.7197590939
 H         -3.1099475720        1.7957043953        2.0296193926
 H         -1.9594417754        1.8027380070        0.6877736786
 H         -1.8679952009        0.5523979690        1.9271904564
 H         -4.0059405670       -0.7067936521       -1.1876181809
 H         -2.1127097839        1.3628264071       -1.7631375367
 H         -2.1072957643       -0.2432640295       -2.4775625476
 H         -2.1752737377       -1.9341166368       -0.5345480204
 H          3.3168228722       -1.4766292130        1.3650499293
 H          5.0514240462        0.2971521607        1.2473996108
 H          4.5370640600        2.4365011437        0.1229117593
 H          2.2944735219        2.7932580159       -0.8783082153
  32
 Etot=  -51.4249864528 g norm=  0.00018164
 C         -4.6844908932       -0.0592745729        1.3848742252
 C         -3.4650713918        0.3372674674        0.6104593436
 C         -2.5061112023        1.2217809372        1.3485062232
 C         -3.2602203656       -0.0945731494       -0.6314825539
 C         -2.0792864682        0.2589244226       -1.4989875433
 C         -0.7369525949        0.0189461911       -0.8526185742
 C         -0.4440490800       -1.1408978447       -0.2090884974
 O         -1.2935314732       -2.1658882779       -0.0833378277
 C          0.8715067287       -1.3977354780        0.4341879226
 O          1.0892613563       -2.4466549757        1.0229554091
 C          1.8731290701       -0.3287312436        0.3151101704
 C          3.1334852133       -0.5073919428        0.8784267523
 C          4.0937806828        0.4860337211        0.7783550261
 C          3.8008728654        1.6671003397        0.1150012402
 C          2.5476568117        1.8551105644       -0.4471410460
 C          1.5760673971        0.8651926404       -0.3540999035
 C          0.2457892667        1.0960516883       -0.9556575980
 O         -0.0192854468        2.1585891068       -1.5148810814
 H         -5.3080117984       -0.7480774901        0.8218605865
 H         -5.2732212663        0.8235488964        1.6298460349
 H         -4.3917259609       -0.5310627673        2.3215358416
 H         -3.0463601543        1.8776172388        2.0271398558
 H         -1.9155135868        1.8314639177        0.6692396052
 H         -1.8203102487        0.6172541223        1.9442068600
 H         -4.0160976420       -0.7102348776       -1.1004799694
 H         -2.1155395747        1.3184659207       -1.7726174595
 H         -2.1304023955       -0.3113394588       -2.4303898916
 H         -2.1736100219       -1.9432394941       -0.4435281470
 H          3.3370522761       -1.4359382241        1.3903077523
 H          5.0672390033        0.3372561409        1.2177357176
 H          4.5454455177        2.4431676851        0.0348201492
 H          2.2977805516        2.7683536015       -0.9660311093
  32
 Etot=  -51.4237159509 g norm=  0.00022457
 C         -5.0819758649       -0.8138680443        1.0230621899
 C         -4.1802038067       -0.0009546438        0.1426071652
 C         -4.8599540950        0.5873171456       -1.0563293202
 C         -2.8997021293        0.1797426172        0.4567871966
 C         -1.8945655507        1.0148601214       -0.2871513671
 C         -0.5031715594        0.4373473354       -0.2412971116
 C         -0.2571388347       -0.8610641989       -0.5564274652
 O         -1.2007278602       -1.7349988357       -0.9227213379
 C          1.1080136258       -1.4514880977       -0.5395910390
 O          1.2891219006       -2.6246939008       -0.8302288886
 C          2.2023215690       -0.5452048848       -0.1638310581
 C          3.5083440765       -1.0265536079       -0.1363266741
 C          4.5565105279       -0.1918082580        0.2149283351
 C          4.3070100721        1.1314535248        0.5427171749
 C          3.0097450827        1.6196507194        0.5193919484
 C          1.9496485397        0.7921647727        0.1673232068
 C          0.5767570615        1.3404715305        0.1501421171
 O          0.3586745348        2.5117582128        0.4527414275
 H         -5.9184980974       -0.2037824369        1.3602761531
 H         -4.5526077424       -1.1915314718        1.8935066102
 H         -5.4925953757       -1.6568466806        0.4692273357
 H         -5.4502922400        1.4505427097       -0.7509848320
 H         -5.5401486901       -0.1392897487       -1.4955237416
 H         -4.1579341600        0.9153807581       -1.8166159329
 H         -2.5187515842       -0.2612131452        1.3700768074
 H         -1.8413161039        2.0115967553        0.1634419852
 H         -2.1914800787        1.1514139224       -1.3302761514
 H         -2.0933592602       -1.3432174981       -0.8481222957
 H          3.6765704669       -2.0609642149       -0.3958545540
 H          5.5644656059       -0.5744061124        0.2317916072
 H          5.1199163359        1.7849162556        0.8167627960
 H          2.7930204374        2.6470028687        0.7716344112
  32
 Etot=  -51.4250119912 g norm=  0.00037917
 C         -4.7009170561       -0.3999295420       -1.1429268152
 C         -3.4508132859        0.1642160388       -0.5403170004
 C         -2.5174103855        0.8166899771       -1.5147764355
 C         -3.2001066495        0.0615324693        0.7623639498
 C         -1.9860282703        0.6103449860        1.4671023697
 C         -0.6685670032        0.1934630724        0.8606617204
 C         -0.4042514331       -1.0962013151        0.5260340348
 O         -1.2632952720       -2.1073588499        0.6921527485
 C          0.8884677328       -1.5276070887       -0.0684030747
 O          1.0800724047       -2.6948648983       -0.3766434453
 C          1.9014237002       -0.4788874155       -0.2528510847
 C          3.1440021057       -0.8146626984       -0.7829598166
 C          4.1150773962        0.1565392818       -0.9639459074
 C          3.8501885398        1.4723943800       -0.6189074367
 C          2.6144819946        1.8169710507       -0.0936282287
 C          1.6331043983        0.8506967815        0.0954878657
 C          0.3230524293        1.2471702006        0.6532901900
 O          0.0813265873        2.4216095441        0.9254851047
 H         -5.3064596438       -0.9108483860       -0.3996394120
 H         -4.4468555892       -1.1013527231       -1.9362226852
 H         -5.2937110679        0.3990437607       -1.5860304419
 H         -3.0810199841        1.2915816683       -2.3143357462
 H         -1.8639214192        0.0685792055       -1.9661413764
 H         -1.8923393714        1.5657085335       -1.0350908721
 H         -3.9394851502       -0.4038237286        1.4002831192
 H         -2.0057702296        0.3011102853        2.5154037054
 H         -2.0069473444        1.7050714098        1.4584019887
 H         -2.1272657087       -1.7886073723        1.0173702305
 H          3.3252294642       -1.8461966755       -1.0452812176
 H          5.0750399581       -0.1142033891       -1.3737967827
 H          4.6032547762        2.2316677078       -0.7585590140
 H          2.3864322331        2.8364177137        0.1797627503
  32
 Etot=  -51.4237162278 g norm=  0.00021357
 C         -5.0618197928       -0.3901352285       -1.3341370803
 C         -4.1577253622       -0.0256805367       -0.1945666258
 C         -4.8218976164       -0.0432620081        1.1487944123
 C         -2.8864189021        0.3057023849       -0.4084333101
 C         -1.8831088459        0.7460647163        0.6210068255
 C         -0.4836271275        0.2769818269        0.3160570464
 C         -0.2149122868       -1.0168191838        0.0003638763
 O         -1.1404522205       -1.9792747828       -0.0730533240
 C          1.1583630228       -1.5084377835       -0.2910219332
 O          1.3581919065       -2.6785125726       -0.5817952821
 C          2.2363223526       -0.5132926097       -0.2035807919
 C          3.5491393629       -0.9057319232       -0.4495534587
 C          4.5824944457        0.0135889738       -0.3718330136
 C          4.3109370230        1.3336431332       -0.0484396565
 C          3.0065012267        1.7343530922        0.1959729559
 C          1.9611463737        0.8209239812        0.1221221987
 C          0.5797871632        1.2765816372        0.3871148287
 O          0.3414714348        2.4516269990        0.6579175792
 H         -5.9336997524        0.2619117016       -1.3388823823
 H         -5.4168477102       -1.4135975734       -1.2209657144
 H         -4.5530281002       -0.3007623277       -2.2900421301
 H         -5.3844745856        0.8792788492        1.2879176508
 H         -4.1111172715       -0.1259521247        1.9654978085
 H         -5.5239312755       -0.8719756825        1.2088461740
 H         -2.5150743243        0.3249271302       -1.4259631108
 H         -2.1673944982        0.4011524193        1.6187254549
 H         -1.8519068790        1.8400043033        0.6589429877
 H         -2.0407536484       -1.6144438546        0.0413159880
 H          3.7343904466       -1.9394879291       -0.7001645072
 H          5.5960360515       -0.3010935833       -0.5628833614
 H          5.1123075575        2.0526127097        0.0135955484
 H          2.7727422953        2.7580653023        0.4478093426
  32
 Etot=  -51.4249834287 g norm=  0.00076488
 C         -4.5548036154       -0.0914924805        1.6274144365
 C         -3.3677509084        0.3325859260        0.8181015176
 C         -2.3689714785        1.1745178542        1.5529110367
 C         -3.2225498582       -0.0410498276       -0.4506373005
 C         -2.0757152749        0.3416246248       -1.3510717406
 C         -0.7109612720        0.0596805973       -0.7719227864
 C         -0.4049393403       -1.1347049969       -0.2018089466
 O         -1.2603451179       -2.1569163511       -0.0958020006
 C          0.9334668183       -1.4376692521        0.3702303936
 O          1.1689671991       -2.5243774705        0.8780118210
 C          1.9344470960       -0.3649448741        0.2848475445
 C          3.2094793264       -0.5778830155        0.8011735685
 C          4.1692798985        0.4188507945        0.7335734271
 C          3.8617276474        1.6366542382        0.1480121198
 C          2.5944977911        1.8580557503       -0.3687392344
 C          1.6226905231        0.8660275782       -0.3059638862
 C          0.2767135832        1.1336123555       -0.8552525463
 O          0.0025471709        2.2236441576       -1.3536751104
 H         -5.2096064507       -0.7479943838        1.0611667780
 H         -5.1240781915        0.7824667127        1.9401042216
 H         -4.2243682851       -0.6093622477        2.5267554037
 H         -1.6599744688        0.5374919754        2.0837115493
 H         -2.8721960899        1.7969159206        2.2888962212
 H         -1.8073370014        1.8154742956        0.8778336138
 H         -4.0039907955       -0.6285342325       -0.9135014121
 H         -2.1117717070        1.4126697339       -1.5752263707
 H         -2.1719094017       -0.1861857873       -2.3035943315
 H         -2.1493375457       -1.9091765534       -0.4154321687
 H          3.4242496350       -1.5349096153        1.2524886018
 H          5.1539863445        0.2436297072        1.1367910271
 H          4.6062561919        2.4152478950        0.0920357660
 H          2.3336290117        2.8000822601       -0.8275505359
  32
 Etot=  -51.4236876599 g norm=  0.00027340
 C         -5.0613356612       -0.5477389007        1.3347070925
 C         -4.1792428805        0.0851779932        0.2999364161
 C         -4.8828884154        0.4316876700       -0.9768833176
 C         -2.8942493237        0.3239158476        0.5508150547
 C         -1.9038946554        0.9996545051       -0.3566463464
 C         -0.5148322356        0.4267693124       -0.2368828445
 C         -0.2837875222       -0.9097378843       -0.3151598586
 O         -1.2414800162       -1.8258688673       -0.4939105002
 C          1.0780576029       -1.5007143768       -0.2244482829
 O          1.2463658046       -2.7080516210       -0.3116488212
 C          2.1849115788       -0.5530395775       -0.0323713411
 C          3.4873956198       -1.0350826929        0.0641169367
 C          4.5470939000       -0.1618226948        0.2464378833
 C          4.3128726004        1.2013704811        0.3336014080
 C          3.0195007617        1.6909608211        0.2383818886
 C          1.9478115925        0.8247290185        0.0552809523
 C          0.5791495389        1.3753816409       -0.0411828339
 O          0.3757197544        2.5848444380        0.0401841197
 H         -5.9064469609        0.1037758197        1.5503360889
 H         -4.5201891873       -0.7347047408        2.2580452162
 H         -5.4599346584       -1.4915104297        0.9652730112
 H         -5.4747249682        1.3341501019       -0.8306480060
 H         -5.5644152687       -0.3682232049       -1.2578497739
 H         -4.1965881058        0.6124037272       -1.7978886038
 H         -2.4959666046        0.0657442099        1.5245247445
 H         -1.8348062244        2.0613202503       -0.0976125494
 H         -2.2254058549        0.9451578614       -1.3999072747
 H         -2.1292950827       -1.4169249666       -0.4677937431
 H          3.6436623849       -2.1010774886       -0.0061368646
 H          5.5520006007       -0.5457768867        0.3204499033
 H          5.1350428059        1.8850351039        0.4740241824
 H          2.8147451101        2.7491887159        0.3038056225
  32
 Etot=  -51.4237578179 g norm=  0.00040671
 C         -5.1323614176       -0.3115503656        1.4359201743
 C         -4.2156997845        0.2226645415        0.3796177627
 C         -4.8769631514        0.7281753429       -0.8702780872
 C         -2.8967409719        0.2529937826        0.5475671569
 C         -1.9254284342        0.8091988157       -0.4594033389
 C         -0.5212325786        0.3031836285       -0.2652650290
 C         -0.2445653979       -1.0257980924       -0.2109766348
 O         -1.1670225624       -1.9880420943       -0.3225465523
 C          1.1322442319       -1.5581087574       -0.0314269571
 O          1.3419673786       -2.7618081502        0.0010346037
 C          2.2016110687       -0.5584797561        0.1006997889
 C          3.5151038585       -0.9838213681        0.2792493814
 C          4.5399605378       -0.0610153566        0.4095271673
 C          4.2594880743        1.2953670432        0.3623096646
 C          2.9548741176        1.7286223897        0.1833894420
 C          1.9178547088        0.8123939497        0.0511891431
 C          0.5365798524        1.3034865489       -0.1406955427
 O          0.2940201040        2.5073196596       -0.1942858629
 H         -5.7334356874       -1.1257700162        1.0333706933
 H         -5.8138776848        0.4709491442        1.7668156674
 H         -4.5763902250       -0.6755612306        2.2958644464
 H         -5.9573890043        0.6630394527       -0.7849631229
 H         -4.5670108662        0.1491063012       -1.7393784112
 H         -4.6039121810        1.7664222041       -1.0515964287
 H         -2.4638658352       -0.0854891996        1.4797908627
 H         -1.8899292960        1.9008866182       -0.3772377663
 H         -2.2616427346        0.5779091010       -1.4749868272
 H         -2.0669152087       -1.6154191131       -0.3759026730
 H          3.7076797085       -2.0456251574        0.3130714540
 H          5.5538302314       -0.4012643097        0.5478073145
 H          5.0540316902        2.0173078243        0.4644548067
 H          2.7144641530        2.7805624512        0.1427484013
  32
 Etot=  -51.4239637162 g norm=  0.00020151
 C         -4.4476420257        0.5316345008        1.8590655693
 C         -3.5938202284        0.7721246963        0.6508642834
 C         -3.5342016619        2.1973786254        0.1813014037
 C         -2.9658668716       -0.2285705854        0.0433240882
 C         -2.0849830629       -0.1053295342       -1.1737392075
 C         -0.6464221214       -0.3191663258       -0.7709284434
 C         -0.1231010431       -1.5585375198       -0.5842218664
 O         -0.7944267317       -2.7012905621       -0.7750972640
 C          1.2802342875       -1.7861780773       -0.1488053213
 O          1.7207045301       -2.9188203884       -0.0167317166
 C          2.0863209705       -0.5836346844        0.1014924383
 C          3.4053378972       -0.7212959689        0.5249172221
 C          4.1858817464        0.3980408134        0.7628958237
 C          3.6534558907        1.6644222515        0.5791235520
 C          2.3409378419        1.8113657448        0.1582848425
 C          1.5474777374        0.6956734133       -0.0835121495
 C          0.1509844629        0.8822869804       -0.5301409992
 O         -0.3127271103        2.0079865529       -0.6951768332
 H         -4.4858764515       -0.5233415442        2.1169843644
 H         -5.4604133938        0.8867866008        1.6745465327
 H         -4.0515753618        1.0851761163        2.7095205171
 H         -4.1190661499        2.3238839101       -0.7290254343
 H         -2.5099630206        2.4976182010       -0.0325726291
 H         -3.9379129602        2.8628556506        0.9389463207
 H         -3.0448272951       -1.2253139427        0.4575864547
 H         -2.1719483155        0.8918523150       -1.6016680157
 H         -2.3888755804       -0.8307491329       -1.9325566098
 H         -1.6975814572       -2.5433752260       -1.0995898804
 H          3.7966251160       -1.7185257774        0.6597806638
 H          5.2066866067        0.2806945228        1.0899321920
 H          4.2580849673        2.5384395728        0.7621978954
 H          1.9067881844        2.7888097661        0.0095831971
  32
 Etot=  -51.4239676577 g norm=  0.00033939
 C         -4.5238914210        0.6586783852        1.8053266397
 C         -3.6867390145        0.7678936933        0.5670013108
 C         -3.6906107601        2.1162119566       -0.0944863552
 C         -3.0157445078       -0.2776049705        0.0967889277
 C         -2.1433170256       -0.2825931262       -1.1323564846
 C         -0.7002595159       -0.4174301416       -0.7133139627
 C         -0.1420321196       -1.6179353991       -0.4099667558
 O         -0.7803727451       -2.7925251478       -0.4875133356
 C          1.2679189173       -1.7629525688        0.0390580294
 O          1.7432095383       -2.8655178529        0.2692307171
 C          2.0363541128       -0.5186484643        0.1800865843
 C          3.3568752352       -0.5772118797        0.6169297625
 C          4.1014051905        0.5824799513        0.7568519795
 C          3.5312606609        1.8104679499        0.4603204938
 C          2.2172261014        1.8786226286        0.0241086190
 C          1.4596105927        0.7218715374       -0.1197668584
 C          0.0609683624        0.8244086100       -0.5867065613
 O         -0.4340697939        1.9149755399       -0.8601022474
 H         -4.1543586859        1.3471890357        2.5641181061
 H         -4.5068023753       -0.3492415737        2.2110387956
 H         -5.5540642158        0.9321069536        1.5824700339
 H         -4.2560341112        2.0834970357       -1.0250575716
 H         -2.6772737310        2.4393062828       -0.3270242818
 H         -4.1484714522        2.8561658717        0.5556000462
 H         -3.0476246737       -1.2115210966        0.6431293402
 H         -2.2525289848        0.6550311965       -1.6744110217
 H         -2.4346098184       -1.0989757926       -1.7980184180
 H         -1.6901859754       -2.6920547243       -0.8164391669
 H          3.7780704179       -1.5457826506        0.8406287050
 H          5.1235270813        0.5261064534        1.0956424382
 H          4.1074029311        2.7157526227        0.5677542628
 H          1.7545825787        2.8249802948       -0.2129925398
  32
 Etot=  -51.4249867536 g norm=  0.00016408
 C         -4.6618688625       -0.0465934816        1.4622543195
 C         -3.4511175111        0.3487693360        0.6740778207
 C         -2.4853325115        1.2361462289        1.3993841629
 C         -3.2582760545       -0.0864981391       -0.5684917349
 C         -2.0859256536        0.2666076040       -1.4475441243
 C         -0.7371253702        0.0248273942       -0.8154528773
 C         -0.4401413369       -1.1331153009       -0.1703170088
 O         -1.2911541772       -2.1550446832       -0.0302484654
 C          0.8823314317       -1.3910182566        0.4580712378
 O          1.1041897942       -2.4379128312        1.0485958690
 C          1.8858454889       -0.3259962240        0.3219456190
 C          3.1526776099       -0.5067347618        0.8697172144
 C          4.1148553686        0.4832121964        0.7537430064
 C          3.8170137339        1.6629678627        0.0903471158
 C          2.5573196584        1.8529436031       -0.4565283968
 C          1.5840935731        0.8663451765       -0.3478531975
 C          0.2470860593        1.0990556392       -0.9334039069
 O         -0.0218370246        2.1605714978       -1.4926551438
 H         -5.2901960597       -0.7381101534        0.9081767596
 H         -5.2493855110        0.8362372645        1.7099552450
 H         -4.3591603825       -0.5146336305        2.3975869101
 H         -3.0189923166        1.8942707214        2.0807579470
 H         -1.9015083462        1.8434809791        0.7124890854
 H         -1.7937568726        0.6339855671        1.9903992414
 H         -4.0178402983       -0.7042067984       -1.0284469497
 H         -2.1233963617        1.3264993015       -1.7199221598
 H         -2.1470589353       -0.3026790180       -2.3787911327
 H         -2.1743459227       -1.9306912293       -0.3822590993
 H          3.3592629255       -1.4334927081        1.3836071760
 H          5.0931131493        0.3331242678        1.1819304424
 H          4.5626803002        2.4365826286       -0.0018292878
 H          2.3039694824        2.7651584706       -0.9759356742
  32
 Etot=  -51.4237484588 g norm=  0.00041479
 C         -5.1310553930       -0.4546919783       -1.3150207321
 C         -4.2141707185        0.1644681009       -0.3063972545
 C         -4.8748752509        0.7671213152        0.8999534769
 C         -2.8955754525        0.1853817930       -0.4790010222
 C         -1.9245612183        0.8246187667        0.4775235906
 C         -0.5185635277        0.3094987811        0.3244075422
 C         -0.2375573651       -1.0188277999        0.3722917948
 O         -1.1574048553       -1.9725566825        0.5556934482
 C          1.1414966685       -1.5587776780        0.2378095759
 O          1.3558960294       -2.7602599416        0.3042573844
 C          2.2074495318       -0.5689697994        0.0274953981
 C          3.5219884163       -1.0027679109       -0.1203700536
 C          4.5440323989       -0.0893911417       -0.3205304642
 C          4.2598043159        1.2660469003       -0.3728712672
 C          2.9539982773        1.7077281661       -0.2259282153
 C          1.9195821133        0.8009116532       -0.0257840679
 C          0.5365697829        1.3007855493        0.1266084940
 O          0.2903905597        2.5044759240        0.0892675632
 H         -5.7336272965       -1.2315956907       -0.8465556312
 H         -4.5755646611       -0.8896446184       -2.1416245840
 H         -5.8114351695        0.2987208427       -1.7096694062
 H         -4.5487793470        0.2721203809        1.8140254977
 H         -5.9548099475        0.6775471629        0.8299772391
 H         -4.6177969927        1.8217056004        0.9867367547
 H         -2.4635992094       -0.2251734479       -1.3822372330
 H         -2.2587358522        0.6759171912        1.5091704116
 H         -1.8930916611        1.9061531374        0.3069993804
 H         -2.0583578434       -1.5991301061        0.5798703006
 H          3.7173929939       -2.0635972581       -0.0749765239
 H          5.5586877300       -0.4361775237       -0.4345076059
 H          5.0522717430        1.9808226166       -0.5279997763
 H          2.7106192162        2.7590664849       -0.2635319851
  32
 Etot=  -51.4236822921 g norm=  0.00015412
 C         -5.1038988486       -0.3000049154        1.5182015142
 C         -4.2060925034        0.2669026551        0.4629990712
 C         -4.8812560666        1.0159647865       -0.6485411859
 C         -2.8866855920        0.1127193050        0.5050967238
 C         -1.9449766014        0.6797680083       -0.5261619973
 C         -0.5282286516        0.2069735058       -0.3479782090
 C         -0.2060832297       -1.1120797780       -0.3911816604
 O         -1.0891913057       -2.0940337697       -0.6034542607
 C          1.1837097075       -1.6108664271       -0.2117706993
 O          1.4346406004       -2.8056808093       -0.2664361546
 C          2.2126911301       -0.5901858887        0.0313491625
 C          3.5349157195       -0.9845602070        0.2162592408
 C          4.5228931353       -0.0411873096        0.4459443278
 C          4.1964766688        1.3048970562        0.4929463195
 C          2.8825874832        1.7073472143        0.3101243074
 C          1.8823018125        0.7702807709        0.0785203656
 C          0.4902529252        1.2287957906       -0.1154537237
 O          0.2075657327        2.4245538508       -0.0844502486
 H         -4.5374864943       -0.8442037422        2.2690027623
 H         -5.8309935504       -0.9740484721        1.0676297897
 H         -5.6543058954        0.5013894975        2.0087339703
 H         -5.9435420809        1.1231542898       -0.4510105127
 H         -4.7592490896        0.4943930645       -1.5972468531
 H         -4.4440478859        2.0068627442       -0.7606071732
 H         -2.4286061398       -0.4081026001        1.3352255088
 H         -1.9350567285        1.7726618847       -0.4556984353
 H         -2.2980383363        0.4315651171       -1.5330249470
 H         -1.9976668568       -1.7532899518       -0.6858233849
 H          3.7639204622       -2.0387712217        0.1739315665
 H          5.5440091591       -0.3571267891        0.5882258741
 H          4.9623408479        2.0427050094        0.6720719762
 H          2.6068069213        2.7508704281        0.3418302977
  32
 Etot=  -51.4236779024 g norm=  0.00016672
 C         -5.0995775549       -0.0646581043        1.5134799524
 C         -4.2014529594        0.3805789494        0.4016613970
 C         -4.8756316774        1.0018536645       -0.7867189891
 C         -2.8819123391        0.2330315320        0.4621785659
 C         -1.9392127869        0.6829846160       -0.6241491160
 C         -0.5252984786        0.2219108573       -0.3990384742
 C         -0.2115173713       -1.0963467903       -0.3030601009
 O         -1.1007143100       -2.0901760517       -0.4097478864
 C          1.1755320138       -1.5821843529       -0.0753680423
 O          1.4204841480       -2.7778023638       -0.0119855633
 C          2.2094042504       -0.5478569864        0.0702203544
 C          3.5272826317       -0.9288304542        0.3071638463
 C          4.5190134361        0.0275450120        0.4512758101
 C          4.2009340653        1.3732538709        0.3580688017
 C          2.8918370898        1.7622587331        0.1198932629
 C          1.8876282686        0.8120683901       -0.0251738169
 C          0.5003990218        1.2560342704       -0.2782938926
 O          0.2267539121        2.4497445117       -0.3826448846
 H         -5.8222805825       -0.7899336172        1.1419779766
 H         -5.6549640879        0.7857771735        1.9066774637
 H         -4.5327814775       -0.5157866755        2.3236448106
 H         -4.7076829316        0.4076911243       -1.6844077749
 H         -4.4733983854        1.9965407355       -0.9732875933
 H         -5.9459553784        1.0834513422       -0.6234856880
 H         -2.4242759034       -0.1922961952        1.3452385718
 H         -1.9223550066        1.7771269734       -0.6681074015
 H         -2.2961134917        0.3337962720       -1.5991744613
 H         -2.0077580680       -1.7546237567       -0.5230614592
 H          3.7494066673       -1.9832078566        0.3757769187
 H          5.5362518463       -0.2782693135        0.6368223412
 H          4.9695484779        2.1213454378        0.4705968867
 H          2.6228061126        2.8050406233        0.0413707783
  32
 Etot=  -51.4249875241 g norm=  0.00028088
 C         -4.6327464891       -0.3340337338        1.3869917262
 C         -3.4290635925        0.1998414564        0.6729843549
 C         -2.4592567010        0.9466207764        1.5383240492
 C         -3.2458844365       -0.0052853327       -0.6289150303
 C         -2.0794917701        0.5009014285       -1.4388429422
 C         -0.7276643214        0.1446780129       -0.8701572554
 C         -0.4278004293       -1.1163522333       -0.4640245706
 O         -1.2789934068       -2.1459256307       -0.5221523039
 C          0.8982954968       -1.4918487421        0.0932442764
 O          1.1266047511       -2.6366136686        0.4559091018
 C          1.8968876419       -0.4166463221        0.1746570910
 C          3.1635148710       -0.6977063940        0.6789213664
 C          4.1210535566        0.2996214870        0.7659998797
 C          3.8189970715        1.5867414980        0.3505197367
 C          2.5597868213        1.8764874290       -0.1517924973
 C          1.5911042296        0.8838916507       -0.2453939175
 C          0.2547517462        1.2228491529       -0.7784168610
 O         -0.0153604201        2.3715467101       -1.1238901482
 H         -5.2168919240        0.4879105538        1.7982229243
 H         -4.3214433988       -0.9657880716        2.2174230554
 H         -5.2671130583       -0.9126163114        0.7214504673
 H         -1.7625086148        0.2510665434        2.0079154093
 H         -2.9885740091        1.4720592395        2.3298028041
 H         -1.8811373906        1.6679210413        0.9663309101
 H         -4.0086803946       -0.5327858326       -1.1859940082
 H         -2.1152094401        1.5926659719       -1.5128265644
 H         -2.1493164267        0.1105754031       -2.4575500011
 H         -2.1623449404       -1.8564854018       -0.8217176286
 H          3.3737623022       -1.7077514315        0.9972006647
 H          5.0995742399        0.0711054031        1.1572314064
 H          4.5614540277        2.3661248311        0.4162182755
 H          2.3033564679        2.8726465447       -0.4802536617
  32
 Etot=  -51.4239633868 g norm=  0.00052390
 C         -4.5114988782        0.8081876325        1.7259510358
 C         -3.6684564356        0.8544731290        0.4877963173
 C         -3.6708039504        2.1662751060       -0.2434397406
 C         -2.9920989470       -0.2121708694        0.0762839939
 C         -2.1143728719       -0.2777478652       -1.1471645258
 C         -0.6740172758       -0.4163965986       -0.7203691947
 C         -0.1343036545       -1.6127072812       -0.3708289499
 O         -0.7925267692       -2.7784019844       -0.3992161198
 C          1.2748508051       -1.7625111753        0.0790469331
 O          1.7305765459       -2.8611260584        0.3614672583
 C          2.0676581176       -0.5277608513        0.1542997300
 C          3.3941129187       -0.5932337466        0.5717265083
 C          4.1620306496        0.5568682863        0.6506906390
 C          3.6087181243        1.7821400214        0.3140059697
 C          2.2887018850        1.8571546214       -0.1029345996
 C          1.5081540636        0.7098550376       -0.1875359155
 C          0.1049552583        0.8183787787       -0.6394744026
 O         -0.3791550314        1.9066987756       -0.9398387961
 H         -5.5416174407        1.0654767597        1.4838526085
 H         -4.1480860216        1.5374525675        2.4488641305
 H         -4.4930945350       -0.1769791900        2.1844934071
 H         -2.6552855463        2.4829442105       -0.4764166255
 H         -4.1442810320        2.9360484848        0.3594794241
 H         -4.2206188984        2.0806093314       -1.1799178849
 H         -3.0243878886       -1.1168059111        0.6697867604
 H         -2.2089568638        0.6390833089       -1.7262744473
 H         -2.4144007064       -1.1157750689       -1.7817994323
 H         -1.7028421922       -2.6737838917       -0.7255435132
 H          3.8012342176       -1.5598162079        0.8280237122
 H          5.1889035327        0.4956038412        0.9741374288
 H          4.2026925679        2.6802602502        0.3740353437
 H          1.8393866402        2.8018048665       -0.3706998254
  32
 Etot=  -51.4236925544 g norm=  0.00027656
 C         -5.1196848442        0.0311062166        1.5029487525
 C         -4.2079469480        0.4229146493        0.3821670452
 C         -4.8647822951        1.0140057522       -0.8309226496
 C         -2.8913060246        0.2571363953        0.4557208051
 C         -1.9370042147        0.6553576292       -0.6405427468
 C         -0.5264894133        0.2001558694       -0.3842997260
 C         -0.2161050392       -1.1139189610       -0.2346894166
 O         -1.1056509224       -2.1101579192       -0.3100984899
 C          1.1681597438       -1.5925744143        0.0248456900
 O          1.4089412491       -2.7849019170        0.1433519285
 C          2.2045198615       -0.5556578168        0.1286224472
 C          3.5216264903       -0.9295790691        0.3807987943
 C          4.5157814520        0.0295223824        0.4842371923
 C          4.2008653811        1.3710086913        0.3359981299
 C          2.8924906634        1.7530107793        0.0833147422
 C          1.8860103184        0.7999838078       -0.0222734804
 C          0.4999341516        1.2365985078       -0.2937967444
 O          0.2283532352        2.4263218109       -0.4403453685
 H         -4.5644611075       -0.3983015530        2.3327469339
 H         -5.8504109733       -0.6969680597        1.1528438740
 H         -5.6652685603        0.9031741278        1.8610386539
 H         -4.7023806999        0.3857640238       -1.7061943545
 H         -4.4441430747        1.9946037205       -1.0497899018
 H         -5.9345790694        1.1195274475       -0.6774786331
 H         -2.4448461872       -0.1440050438        1.3555250607
 H         -1.9158018605        1.7465009000       -0.7318923291
 H         -2.2872794732        0.2655084853       -1.6025190762
 H         -2.0111433022       -1.7798684676       -0.4474166744
 H          3.7418010328       -1.9808097740        0.4908563053
 H          5.5328480775       -0.2708355141        0.6796751572
 H          4.9715475064        2.1211275698        0.4160414107
 H          2.6256269045        2.7923701233       -0.0369967190
  32
 Etot=  -51.4235403673 g norm=  0.00057863
 C         -5.0864062015       -0.6307018145        1.2379010092
 C         -4.1911846525        0.0548381645        0.2502149978
 C         -4.8638712515        0.4563304023       -1.0293145264
 C         -2.9046800851        0.2644386433        0.5177300352
 C         -1.9067858815        0.9487259796       -0.3774017665
 C         -0.5136116634        0.3925962334       -0.2311953241
 C         -0.2686366271       -0.9428666770       -0.2809762508
 O         -1.2162944660       -1.8706555089       -0.4536739020
 C          1.0969894653       -1.5189810958       -0.1610773699
 O          1.2772250568       -2.7264895316       -0.2172840804
 C          2.1928414119       -0.5568839905        0.0225165664
 C          3.4983811351       -1.0243524883        0.1441388790
 C          4.5480012906       -0.1372138028        0.3186814221
 C          4.3003804515        1.2252630379        0.3726716648
 C          3.0034717080        1.7004150011        0.2528156885
 C          1.9420025640        0.8203374238        0.0772252119
 C          0.5693975295        1.3556750677       -0.0461873782
 O          0.3542588696        2.5648710108        0.0034968646
 H         -5.5816545384       -1.4784503497        0.7672970236
 H         -5.8603915516        0.0552106847        1.5795372191
 H         -4.5298150680       -0.9820470717        2.1024713003
 H         -5.8875318125        0.7612666268       -0.8258508534
 H         -4.9034300712       -0.3880977194       -1.7172545935
 H         -4.3513326595        1.2791253247       -1.5180443205
 H         -2.5126930220       -0.0310413974        1.4832793296
 H         -1.8525875413        2.0140911252       -0.1285698802
 H         -2.2106893627        0.8730298501       -1.4244861021
 H         -2.1071557213       -1.4670216667       -0.4453124666
 H          3.6652045971       -2.0901633972        0.0995393291
 H          5.5555550386       -0.5101684073        0.4113947103
 H          5.1142294731        1.9197625759        0.5083872590
 H          2.7887105104        2.7579881928        0.2916662468
  32
 Etot=  -51.4236895225 g norm=  0.00042571
 C         -5.0489566762       -0.6507077361        1.3593956053
 C         -4.1640844777       -0.0155100055        0.3283741350
 C         -4.8548916036        0.2949275025       -0.9644799166
 C         -2.8885577338        0.2549265127        0.5956837437
 C         -1.8974687661        0.9375889238       -0.3054650115
 C         -0.5031692099        0.3804390671       -0.1710730252
 C         -0.2573282976       -0.9540898299       -0.2371346607
 O         -1.2036972309       -1.8818005806       -0.4162353442
 C          1.1099068428       -1.5298059454       -0.1300541095
 O          1.2911060145       -2.7362976284       -0.2005696953
 C          2.2057225398       -0.5685541278        0.0579342952
 C          3.5127116046       -1.0357547709        0.1656135874
 C          4.5623192689       -0.1493600457        0.3433250883
 C          4.3133491997        1.2121114678        0.4148279070
 C          3.0151515596        1.6868642014        0.3094456831
 C          1.9535374447        0.8074084316        0.1306268082
 C          0.5793620743        1.3423242242        0.0232481689
 O          0.3625177648        2.5501310380        0.0936434676
 H         -5.4245471036       -1.6067748809        0.9979718820
 H         -5.9091466729       -0.0124463484        1.5538662942
 H         -4.5176765879       -0.8143966827        2.2927679454
 H         -5.5083521590       -0.5278589509       -1.2459532532
 H         -4.1599271097        0.4845711920       -1.7766179120
 H         -5.4748228540        1.1819372751       -0.8399355942
 H         -2.5003941609        0.0198642342        1.5794410555
 H         -1.8421897858        2.0008296940       -0.0494928110
 H         -2.2088176499        0.8760007325       -1.3513866965
 H         -2.0960228258       -1.4819431019       -0.3997260584
 H          3.6806247258       -2.1006461965        0.1066305895
 H          5.5709925364       -0.5217929262        0.4253026209
 H          5.1274489930        1.9058600464        0.5526784034
 H          2.7989895809        2.7434558971        0.3629544383
  32
 Etot=  -51.4249996599 g norm=  0.00042631
 C         -4.7488908498       -0.2033373002       -1.1226447868
 C         -3.5007515715        0.2852884908       -0.4539080588
 C         -2.5896731204        1.0941080798       -1.3271492951
 C         -3.2316893517       -0.0084355481        0.8155286055
 C         -2.0112797810        0.4437203895        1.5758291413
 C         -0.7037584628        0.1112037683        0.8991862061
 C         -0.4442174958       -1.1259398056        0.4019478100
 O         -1.2975914604       -2.1537954721        0.4590887841
 C          0.8367057357       -1.4750149123       -0.2675549829
 O          1.0267714810       -2.5965934532       -0.7146662051
 C          1.8396427660       -0.4040546188       -0.3511332912
 C          3.0672697531       -0.6630282210       -0.9540670549
 C          4.0284264947        0.3306615003       -1.0433693713
 C          3.7688886927        1.5920852062       -0.5314377692
 C          2.5481697989        1.8601088574        0.0685179760
 C          1.5764789594        0.8707746525        0.1654802147
 C          0.2815302682        1.1866338647        0.8041664293
 O          0.0463188962        2.3152443301        1.2314923919
 H         -5.3355741686       -0.8333319919       -0.4600558585
 H         -4.4923337270       -0.7710850168       -2.0157270311
 H         -5.3610179359        0.6421217813       -1.4330851807
 H         -3.1701787601        1.6730514899       -2.0414282536
 H         -1.9275715118        0.4352990411       -1.8910908653
 H         -1.9727702154        1.7744559846       -0.7455283390
 H         -3.9555456486       -0.5764000441        1.3846372534
 H         -2.0184566015       -0.0029223064        2.5733598214
 H         -2.0305836845        1.5297097597        1.7132581762
 H         -2.1547863240       -1.8827510548        0.8397671202
 H          3.2446309635       -1.6531613654       -1.3464061350
 H          4.9764731348        0.1194876056       -1.5117907940
 H          4.5142529384        2.3685750762       -0.5987028835
 H          2.3246159159        2.8364171971        0.4720435343
  32
 Etot=  -51.4239588956 g norm=  0.00014750
 C         -4.4661936538        0.3299441533       -1.8633769075
 C         -3.5965002007        0.7190008301       -0.7065277481
 C         -3.5436584145        2.1899705746       -0.4088806522
 C         -2.9469915788       -0.1967510949        0.0034628346
 C         -2.0454924134        0.0788138471        1.1796826556
 C         -0.6165372643       -0.1984122884        0.7824773262
 C         -0.0951966684       -1.4526244605        0.7760829912
 O         -0.7595818418       -2.5519793135        1.1544788955
 C          1.2990385545       -1.7460502959        0.3508843974
 O          1.7418545620       -2.8846899868        0.3930220925
 C          2.0931225934       -0.5989259843       -0.1097592913
 C          3.3994726894       -0.8032848651       -0.5452964051
 C          4.1665132239        0.2624950659       -0.9862617886
 C          3.6333041964        1.5417281071       -0.9944441298
 C          2.3341589926        1.7552657469       -0.5606998767
 C          1.5541696458        0.6936819359       -0.1164339367
 C          0.1718880549        0.9505597202        0.3397795548
 O         -0.2878123512        2.0898131848        0.3479370417
 H         -5.4818651024        0.6868844425       -1.7000999989
 H         -4.4893278227       -0.7478505926       -2.0008015240
 H         -4.0949073580        0.7914760235       -2.7775693844
 H         -4.0928799366        2.4147469404        0.5047219668
 H         -3.9888119993        2.7572143923       -1.2213044842
 H         -2.5162549114        2.5244818835       -0.2751171683
 H         -3.0216556272       -1.2369464461       -0.2864573948
 H         -2.3410943206       -0.5371880111        2.0325525497
 H         -2.1188739793        1.1245982105        1.4726963266
 H         -1.6569578134       -2.3457251555        1.4678345118
 H          3.7914306268       -1.8092042121       -0.5294433254
 H          5.1770730283        0.0933766627       -1.3223729342
 H          4.2268313432        2.3742959817       -1.3373072724
 H          1.9005395371        2.7441708983       -0.5576418393
  32
 Etot=  -51.4236248674 g norm=  0.00016845
 C         -5.0473746513       -0.5146444753        1.4405736655
 C         -4.1924735450        0.1151088774        0.3812790023
 C         -4.9516212854        0.5958006074       -0.8174622221
 C         -2.8784768670        0.2382602393        0.5452251560
 C         -1.9105640161        0.8882821291       -0.4072925819
 C         -0.5098806382        0.3538296503       -0.2612721428
 C         -0.2442212877       -0.9768437197       -0.3280457740
 O         -1.1725720234       -1.9174150254       -0.5325161995
 C          1.1276864933       -1.5344112436       -0.1878902270
 O          1.3270564968       -2.7381619564       -0.2564303454
 C          2.2046181241       -0.5591840906        0.0343996458
 C          3.5138204911       -1.0094568219        0.1805040256
 C          4.5459205163       -0.1097874594        0.3906456575
 C          4.2772399323        1.2482582506        0.4557538590
 C          2.9768053015        1.7062776206        0.3117823272
 C          1.9325539996        0.8133137476        0.1011162824
 C          0.5553696290        1.3303429718       -0.0459612205
 O          0.3221456783        2.5358582504        0.0099638185
 H         -5.5570297092       -1.3912866663        1.0430650272
 H         -5.8109773934        0.1886018746        1.7690447114
 H         -4.4559188299       -0.8144019602        2.3013335318
 H         -5.4993665819        1.5016409343       -0.5587923328
 H         -5.6788087008       -0.1528567099       -1.1261147736
 H         -4.3026283372        0.8258883680       -1.6568776737
 H         -2.4330390814       -0.1046102903        1.4711628903
 H         -1.8651601082        1.9644781697       -0.2102562301
 H         -2.2390556128        0.7657643906       -1.4432338169
 H         -2.0699422740       -1.5354023479       -0.5611878414
 H          3.6972707651       -2.0720166134        0.1256567112
 H          5.5562091125       -0.4692495641        0.5035311286
 H          5.0775355973        1.9522346550        0.6194826784
 H          2.7452952590        2.7599287528        0.3595398449
  32
 Etot=  -51.4250192227 g norm=  0.00019614
 C         -4.7014742626       -0.4780250855        1.2007231727
 C         -3.4732409252        0.1200931229        0.5863806184
 C         -2.5163123594        0.7399815954        1.5593763781
 C         -3.2593588985        0.0728961243       -0.7259799291
 C         -2.0695293048        0.6603978182       -1.4410898781
 C         -0.7332006629        0.2291244803       -0.8883420483
 C         -0.4492091643       -1.0727358946       -0.6242928568
 O         -1.3042423903       -2.0823792967       -0.8179101219
 C          0.8631639701       -1.5204792163       -0.0879986246
 O          1.0767354289       -2.7009716936        0.1465813166
 C          1.8681832887       -0.4706927435        0.1307603716
 C          3.1254009771       -0.8191500545        0.6162413112
 C          4.0891808052        0.1528083029        0.8296386472
 C          3.8024567138        1.4818625971        0.5613321250
 C          2.5524643980        1.8387556490        0.0797114097
 C          1.5781017056        0.8721900540       -0.1409815002
 C          0.2528574065        1.2817049759       -0.6517691711
 O         -0.0053981101        2.4653407766       -0.8616090267
 H         -5.2857796905        0.2972868671        1.6940201680
 H         -4.4199510487       -1.2100766870        1.9561419545
 H         -5.3254626282       -0.9618101513        0.4545753221
 H         -3.0584792168        1.1675294957        2.3993748183
 H         -1.9186054788        1.5206101559        1.0954921994
 H         -1.8370136418       -0.0183361038        1.9518515554
 H         -4.0132782402       -0.3721899447       -1.3614761975
 H         -2.0978397241        1.7535551178       -1.3859624129
 H         -2.1164671530        0.3943709991       -2.5003407990
 H         -2.1783721437       -1.7555471308       -1.1056419508
 H          3.3233779614       -1.8608917174        0.8192754286
 H          5.0602810363       -0.1281939950        1.2048714038
 H          4.5495037460        2.2418862513        0.7265476271
 H          2.3078810290        2.8683644136       -0.1347134866
  32
 Etot=  -51.4249820554 g norm=  0.00023089
 C         -4.5803623946       -0.3087815952        1.5461939566
 C         -3.3843058457        0.2182099991        0.8146032966
 C         -2.3952277254        0.9550641029        1.6665252687
 C         -3.2225179818        0.0140581792       -0.4902658443
 C         -2.0646604707        0.5122567550       -1.3170397242
 C         -0.7066507527        0.1495864440       -0.7677117898
 C         -0.4095658837       -1.1108317084       -0.3575072898
 O         -1.2689506127       -2.1345774685       -0.3953790251
 C          0.9217644366       -1.4917924124        0.1832672456
 O          1.1449201495       -2.6339299975        0.5576870944
 C          1.9322969896       -0.4256855822        0.2326354315
 C          3.2071114101       -0.7144059194        0.7114678686
 C          4.1765408872        0.2737026569        0.7657456448
 C          3.8782644603        1.5593588331        0.3429679874
 C          2.6107044994        1.8570590944       -0.1329312603
 C          1.6300238095        0.8736691774       -0.1936368397
 C          0.2848392248        1.2212094308       -0.6981313117
 O          0.0151229418        2.3714667131       -1.0385139695
 H         -5.1500618336        0.5160734062        1.9714773945
 H         -4.2606595564       -0.9476321312        2.3681699414
 H         -5.2307937414       -0.8782473482        0.8882798654
 H         -1.6951112507        0.2531618917        2.1223296115
 H         -2.9081858266        1.4806686718        2.4684432201
 H         -1.8223027491        1.6749482642        1.0873896286
 H         -3.9971416598       -0.5074048146       -1.0365306096
 H         -2.0955116632        1.6040876716       -1.3923940808
 H         -2.1510632784        0.1207727143       -2.3340646462
 H         -2.1547732831       -1.8402719901       -0.6829561820
 H          3.4141964550       -1.7231209692        1.0360909325
 H          5.1612017757        0.0392948898        1.1376875097
 H          4.6299066571        2.3315700819        0.3835077753
 H          2.3564556648        2.8525377331       -0.4648380375
  32
 Etot=  -51.4237112719 g norm=  0.00039544
 C         -5.0165083011       -0.7814817546        1.2874487122
 C         -4.1533624598       -0.0484605612        0.3037877081
 C         -4.8738114902        0.3899997438       -0.9345736897
 C         -2.8713275273        0.1913057803        0.5672429453
 C         -1.8954997772        0.9571684383       -0.2831172077
 C         -0.4982339106        0.3964745693       -0.2098418751
 C         -0.2462127407       -0.9213900412       -0.4228650822
 O         -1.1869244222       -1.8277554035       -0.7084165185
 C          1.1232880353       -1.5000397176       -0.3734817638
 O          1.3105643868       -2.6901059269       -0.5790826851
 C          2.2133525693       -0.5618928169       -0.0708199511
 C          3.5217332070       -1.0333594679       -0.0076552038
 C          4.5663683519       -0.1684625989        0.2744996878
 C          4.3109049001        1.1754469947        0.4963319436
 C          3.0111803036        1.6541901059        0.4365973003
 C          1.9545170034        0.7963408071        0.1540166943
 C          0.5786413613        1.3347744052        0.0978343399
 O          0.3556905399        2.5261956134        0.3025090963
 H         -5.4228530396       -1.6846943192        0.8348683151
 H         -5.8569511318       -0.1551832748        1.5822012726
 H         -4.4581440603       -1.0570571264        2.1778372282
 H         -5.4966137042       -0.4192798343       -1.3105369245
 H         -4.1986568763        0.7093904401       -1.7221300659
 H         -5.5294213594        1.2262256661       -0.6947793359
 H         -2.4622968096       -0.1424796218        1.5133796339
 H         -1.8417610264        1.9940032285        0.0650459092
 H         -2.2181465317        0.9850398735       -1.3269583681
 H         -2.0818857062       -1.4391673605       -0.6563055208
 H          3.6946445818       -2.0843801538       -0.1841956890
 H          5.5760082309       -0.5441169066        0.3213275183
 H          5.1210543620        1.8526000818        0.7158908175
 H          2.7900762654        2.6972950210        0.6069034925
  32
 Etot=  -51.4239701296 g norm=  0.00032288
 C         -4.5047756746        0.4277983261       -1.8673334171
 C         -3.6419028213        0.7420111018       -0.6828695515
 C         -3.6087894115        2.1875135137       -0.2774169983
 C         -2.9805735041       -0.2151404092       -0.0416797143
 C         -2.0835082779       -0.0158885737        1.1531370881
 C         -0.6514614570       -0.2511613351        0.7404563982
 C         -0.1204909113       -1.4975563532        0.6444837889
 O         -0.7789062530       -2.6262202920        0.9373598916
 C          1.2782371096       -1.7482959905        0.2075002673
 O          1.7301337202       -2.8835605892        0.1682349449
 C          2.0653761274       -0.5644493118       -0.1632899850
 C          3.3765766842       -0.7263487633       -0.6020727352
 C          4.1381217720        0.3746723646       -0.9577981527
 C          3.5941914714        1.6468941839       -0.8776264248
 C          2.2899045288        1.8181075615       -0.4404166972
 C          1.5155228767        0.7209765574       -0.0806354238
 C          0.1281948218        0.9330076905        0.3831892321
 O         -0.3426930174        2.0645105317        0.4675806526
 H         -5.5245659785        0.7623561814       -1.6832114881
 H         -4.5166373384       -0.6377079872       -2.0810819108
 H         -4.1351892415        0.9564009271       -2.7451673395
 H         -4.1605268521        2.3366329733        0.6499610216
 H         -4.0619705049        2.8073232923       -1.0458184739
 H         -2.5858957991        2.5250199467       -0.1188692482
 H         -3.0394188035       -1.2313005518       -0.4097284085
 H         -2.3735517092       -0.6940730650        1.9596787957
 H         -2.1667572227        1.0056532411        1.5197526882
 H         -1.6803720404       -2.4492047886        1.2568032513
 H          3.7769103280       -1.7276671388       -0.6555088295
 H          5.1529500087        0.2385376544       -1.2960265879
 H          4.1835404462        2.5069216659       -1.1535431821
 H          1.8479598192        2.8007468364       -0.3692527321
  32
 Etot=  -51.4239708379 g norm=  0.00032646
 C         -4.5471281355        0.5846565549       -1.7620536745
 C         -3.6866576593        0.7981986913       -0.5537819672
 C         -3.6795325289        2.1975322829       -0.0085783820
 C         -3.0043541308       -0.2033589303       -0.0098629431
 C         -2.1090136396       -0.1034851234        1.1985631120
 C         -0.6765589616       -0.3032555073        0.7701226258
 C         -0.1372350884       -1.5368792443        0.5909467852
 O         -0.7864758258       -2.6878109056        0.8074450235
 C          1.2627662426       -1.7479491239        0.1367115375
 O          1.7223074090       -2.8749107911        0.0216379907
 C          2.0414858742       -0.5365356118       -0.1541684073
 C          3.3538606918       -0.6597416046       -0.6019429855
 C          4.1078609994        0.4678363887       -0.8825829180
 C          3.5550385637        1.7280441091       -0.7179362632
 C          2.2493245131        1.8606717575       -0.2716767646
 C          1.4826217319        0.7366310851        0.0137319625
 C          0.0938311982        0.9075532466        0.4902627641
 O         -0.3856706938        2.0275373473        0.6477402441
 H         -4.5319385437       -0.4531568482       -2.0842765334
 H         -4.1966429517        1.2107917653       -2.5816722325
 H         -5.5744276993        0.8707340353       -1.5414546500
 H         -4.1599784859        2.8784997963       -0.7052164503
 H         -2.6611864135        2.5415357182        0.1653124084
 H         -4.2174426516        2.2419916776        0.9376979617
 H         -3.0445877411       -1.1807836995       -0.4733169234
 H         -2.4009710353       -0.8454878148        1.9459002130
 H         -2.1934933403        0.8843896612        1.6477419544
 H         -1.6896352724       -2.5410564648        1.1373459522
 H          3.7613625551       -1.6524186942       -0.7213119114
 H          5.1237264115        0.3615167576       -1.2283074812
 H          4.1383356538        2.6085372024       -0.9358555918
 H          1.8002794992        2.8332346404       -0.1358707855
  32
 Etot=  -51.4239606545 g norm=  0.00024071
 C         -4.4675798076        0.3386642822       -1.8714231185
 C         -3.5944388074        0.7265883173       -0.7167425355
 C         -3.5453952534        2.1967813590       -0.4143097079
 C         -2.9385563736       -0.1894120187       -0.0130041919
 C         -2.0340757416        0.0848255083        1.1612099927
 C         -0.6056504547       -0.1938947705        0.7629814865
 C         -0.0871126315       -1.4491955015        0.7534369592
 O         -0.7543616202       -2.5480830494        1.1278802255
 C          1.3067220621       -1.7447574900        0.3281098397
 O          1.7437090521       -2.8860270109        0.3584904197
 C          2.1082808167       -0.5962884622       -0.1158485177
 C          3.4191062604       -0.8005540305       -0.5378644000
 C          4.1940316739        0.2667533730       -0.9610486601
 C          3.6638261083        1.5472639406       -0.9660901506
 C          2.3597266119        1.7604712196       -0.5471318450
 C          1.5722206181        0.6975683730       -0.1195156268
 C          0.1856490670        0.9544655130        0.3238257920
 O         -0.2747417599        2.0934607515        0.3260124877
 H         -4.0984883766        0.8010096227       -2.7860999387
 H         -5.4829605045        0.6953640372       -1.7054889036
 H         -4.4907907451       -0.7390063175       -2.0099124835
 H         -4.0949641545        2.4166666915        0.5002961323
 H         -3.9929157959        2.7655090240       -1.2243868918
 H         -2.5189587363        2.5339820014       -0.2802706227
 H         -3.0087951153       -1.2284205727       -0.3080310809
 H         -2.3287431974       -0.5308493771        2.0147399918
 H         -2.1057532455        1.1306443015        1.4544930216
 H         -1.6512931831       -2.3409474450        1.4418940992
 H          3.8085412515       -1.8075097789       -0.5249410265
 H          5.2084810204        0.0978866276       -1.2854067763
 H          4.2634841899        2.3810171202       -1.2951664862
 H          1.9281836904        2.7502835908       -0.5423321258
  32
 Etot=  -51.4237172971 g norm=  0.00026373
 C         -5.0638334145       -0.5390391814       -1.2811095851
 C         -4.1642948837       -0.0037094104       -0.2070910020
 C         -4.8278666113        0.1521247976        1.1274786727
 C         -2.8997673413        0.3162943815       -0.4725393083
 C         -1.8954323111        0.9133770095        0.4731512978
 C         -0.5041405016        0.3705998977        0.2669617423
 C         -0.2610038119       -0.9638051421        0.1890564701
 O         -1.2065898142       -1.9047475306        0.2812577804
 C          1.1033538763       -1.5265214248        0.0027121412
 O          1.2817286765       -2.7338290564       -0.0616669983
 C          2.1997282816       -0.5523151500       -0.0920946199
 C          3.5043660080       -1.0072081249       -0.2627220649
 C          4.5542813579       -0.1084004539       -0.3560479537
 C          4.3078721058        1.2533187387       -0.2801495392
 C          3.0120711076        1.7159398302       -0.1108990762
 C          1.9502432349        0.8238840398       -0.0152825919
 C          0.5787768274        1.3460607222        0.1642956129
 O          0.3642973976        2.5548661859        0.2253206791
 H         -5.4152800815       -1.5356123295       -1.0178608242
 H         -4.5528068287       -0.5904542123       -2.2385551969
 H         -5.9384261710        0.1009145284       -1.3852805110
 H         -5.4668710253       -0.7050504528        1.3294800247
 H         -5.4593025837        1.0399298559        1.1167519615
 H         -4.1157432927        0.2583115089        1.9403394348
 H         -2.5324866091        0.1956740850       -1.4847305097
 H         -2.1911092902        0.7571342173        1.5135709945
 H         -1.8421114388        1.9955512305        0.3148973243
 H         -2.0990847666       -1.5054704560        0.3166380560
 H          3.6700870487       -2.0725349902       -0.3199358384
 H          5.5609992721       -0.4712407137       -0.4888064188
 H          5.1221370040        1.9566706923       -0.3529350439
 H          2.7980095289        2.7725448825       -0.0494272604
  32
 Etot=  -51.4236853593 g norm=  0.00028354
 C         -5.0384114021       -0.6773363655        1.2365514336
 C         -4.1552258144       -0.0359962984        0.2076474207
 C         -4.8469854004        0.2756587513       -1.0846517493
 C         -2.8814830924        0.2391357925        0.4769659121
 C         -1.8923840718        0.9308292515       -0.4200733345
 C         -0.4951401692        0.3834482348       -0.2773634129
 C         -0.2375111692       -0.9471706472       -0.3706878036
 O         -1.1741322975       -1.8775054921       -0.5841535061
 C          1.1331372356       -1.5142113004       -0.2599062096
 O          1.3266658542       -2.7163211319       -0.3643892226
 C          2.2168556871       -0.5494910547       -0.0250700759
 C          3.5256002356       -1.0088419984        0.0946041360
 C          4.5638179807       -0.1194249353        0.3182052576
 C          4.3016850256        1.2373609545        0.4242556735
 C          3.0017920689        1.7043827372        0.3063497645
 C          1.9515613346        0.8218156946        0.0814675070
 C          0.5755700382        1.3488499239       -0.0401241950
 O          0.3474893361        2.5529000286        0.0551595181
 H         -5.4101528114       -1.6341797651        0.8726934475
 H         -5.9011872008       -0.0425962971        1.4323287135
 H         -4.5068056836       -0.8409818808        2.1699384894
 H         -5.4796941064        1.1527915695       -0.9546790448
 H         -5.4884985246       -0.5538337792       -1.3745583432
 H         -4.1528931256        0.4819128137       -1.8932880515
 H         -2.4928810214        0.0013707994        1.4598164329
 H         -1.8466515555        1.9941001360       -0.1623010321
 H         -2.1982823717        0.8671856258       -1.4674073171
 H         -2.0698050377       -1.4864243503       -0.5712148492
 H          3.7040017082       -2.0701513601        0.0085459657
 H          5.5739272762       -0.4858060953        0.4092044666
 H          5.1068040312        1.9333843802        0.5986161298
 H          2.7750992535        2.7571475416        0.3857505276
  32
 Etot=  -51.4239507741 g norm=  0.00030700
 C         -4.4747934527        0.3887458473       -1.8298541338
 C         -3.6079143015        0.7387713707       -0.6584459087
 C         -3.5643581345        2.1975864139       -0.3047696797
 C         -2.9527382858       -0.1993476202        0.0163443329
 C         -2.0521906809        0.0365567082        1.2019476230
 C         -0.6229656889       -0.2202031595        0.7927156718
 C         -0.0937780160       -1.4702556781        0.7481239653
 O         -0.7499232405       -2.5846168895        1.0957063681
 C          1.3017383527       -1.7416155579        0.3124307483
 O          1.7559223651       -2.8764518162        0.3308713469
 C          2.0819351830       -0.5783855440       -0.1309923174
 C          3.3832932206       -0.7632941809       -0.5893365951
 C          4.1372161805        0.3180170747       -1.0149139999
 C          3.5960384619        1.5935081931       -0.9839021411
 C          2.3019854148        1.7877211139       -0.5266644592
 C          1.5348246302        0.7103037461       -0.0984474934
 C          0.1573829633        0.9464104554        0.3828493681
 O         -0.3061787190        2.0829840637        0.4346945192
 H         -4.1024111501        0.8829780364       -2.7262327696
 H         -5.4917445028        0.7374436550       -1.6570050401
 H         -4.4951138960       -0.6834681524       -2.0055988076
 H         -4.1159171121        2.3835189207        0.6160199626
 H         -4.0124452023        2.7927957174       -1.0952077483
 H         -2.5391378911        2.5331835474       -0.1569925152
 H         -3.0193630266       -1.2280588962       -0.3138546247
 H         -2.3445858043       -0.6114534473        2.0319252169
 H         -2.1292251199        1.0706892087        1.5329213465
 H         -1.6488177686       -2.3941044413        1.4143740002
 H          3.7822495325       -1.7665595777       -0.6023571863
 H          5.1442304152        0.1640290723       -1.3690346839
 H          4.1794943156        2.4381375542       -1.3143926216
 H          1.8622923874        2.7733515118       -0.4929533910
  32
 Etot=  -51.4236958367 g norm=  0.00032568
 C         -5.0258953037       -0.7575374755        1.2220839405
 C         -4.1482952124       -0.0628388531        0.2234255217
 C         -4.8464886577        0.3075609489       -1.0496080914
 C         -2.8741140954        0.2012875673        0.5019458177
 C         -1.8875962462        0.9382391891       -0.3612333390
 C         -0.4897941433        0.3846938838       -0.2508577770
 C         -0.2313486822       -0.9392851825       -0.4121236584
 O         -1.1665222102       -1.8591409540       -0.6717940878
 C          1.1397107831       -1.5103560510       -0.3303725221
 O          1.3331453997       -2.7063354124       -0.4909224636
 C          2.2239348725       -0.5572173334       -0.0545898541
 C          3.5335945903       -1.0206661519        0.0354991224
 C          4.5725634905       -0.1419301988        0.2948553730
 C          4.3101285678        1.2079827896        0.4670321840
 C          3.0092223129        1.6789013126        0.3797445827
 C          1.9582338208        0.8071026252        0.1192378107
 C          0.5810240693        1.3377077415        0.0317929956
 O          0.3520966649        2.5348372091        0.1909292700
 H         -5.8835578306       -0.1308113637        1.4612713037
 H         -4.4873294997       -0.9761473239        2.1400280614
 H         -5.4058787376       -1.6903445304        0.8081802654
 H         -5.5190168647        1.1442488491       -0.8637841654
 H         -5.4493293227       -0.5276107788       -1.4010514065
 H         -4.1584045330        0.5997218749       -1.8365623019
 H         -2.4823820080       -0.0844056057        1.4708251853
 H         -1.8411432973        1.9866048549       -0.0483501690
 H         -2.1958577430        0.9294003822       -1.4096502260
 H         -2.0630971753       -1.4716803775       -0.6412123078
 H          3.7119739077       -2.0765542111       -0.1021051683
 H          5.5834021465       -0.5113252385        0.3622741253
 H          5.1159108183        1.8957937151        0.6687978320
 H          2.7824957460        2.7265236288        0.5107225996
  32
 Etot=  -51.4237449837 g norm=  0.00023172
 C         -5.0363181885       -0.2545219580       -1.4778998963
 C         -4.1524478103        0.0213261106       -0.2983508284
 C         -4.8526792615       -0.0422963473        1.0249914865
 C         -2.8668113134        0.3234417396       -0.4613488960
 C         -1.8821940633        0.6806075152        0.6180149297
 C         -0.4764283138        0.2430847850        0.2967933020
 C         -0.1938782771       -1.0298441292       -0.0844138291
 O         -1.1105094259       -1.9947655626       -0.2137673802
 C          1.1859215703       -1.4942245488       -0.3895040274
 O          1.4003053581       -2.6491440034       -0.7266982102
 C          2.2522367987       -0.4916635297       -0.2559350138
 C          3.5693455879       -0.8567029887       -0.5204186804
 C          4.5917445186        0.0703302829       -0.4011115069
 C          4.3051590161        1.3707643569       -0.0170573857
 C          2.9965579681        1.7439957613        0.2474894528
 C          1.9620707890        0.8225673445        0.1322186601
 C          0.5763167840        1.2486763269        0.4216408855
 O          0.3258079719        2.4050562921        0.7546754404
 H         -4.4944287480       -0.1503183266       -2.4138559794
 H         -5.8763609041        0.4379787848       -1.4809363664
 H         -5.4424158453       -1.2633947047       -1.4183492805
 H         -4.1656202776       -0.1731913493        1.8553628670
 H         -5.5708231778       -0.8590979380        1.0305636147
 H         -5.4019623143        0.8840797316        1.1892815920
 H         -2.4666540605        0.3836547596       -1.4661376025
 H         -2.1813319399        0.2525878607        1.5785863257
 H         -1.8569537759        1.7677418287        0.7466520915
 H         -2.0137187618       -1.6477805999       -0.0779289410
 H          3.7668528541       -1.8755272492       -0.8182420674
 H          5.6087157263       -0.2233957272       -0.6065336581
 H          5.0981037836        2.0954977935        0.0774972399
 H          2.7507341691        2.7519180559        0.5469575736
  32
 Etot=  -51.4237214256 g norm=  0.00019106
 C         -5.0354465997       -0.4359198928        1.5195968632
 C         -4.1584291565        0.0686148894        0.4124525763
 C         -4.8544545817        0.2019411483       -0.9080119286
 C         -2.8849180321        0.3830005725        0.6395674714
 C         -1.8990050075        0.9491249402       -0.3440240348
 C         -0.5083903327        0.3965309783       -0.1605650423
 C         -0.2775009130       -0.9386189772       -0.0608594586
 O         -1.2360740480       -1.8697569741       -0.1074210036
 C          1.0852478188       -1.5127608411        0.0996249999
 O          1.2528454855       -2.7205797242        0.1814108740
 C          2.1937261015       -0.5489303535        0.1472313557
 C          3.4974660391       -1.0148291159        0.2930745365
 C          4.5588515564       -0.1260278473        0.3417713051
 C          4.3249475064        1.2365816378        0.2453707930
 C          3.0301789771        1.7101287726        0.1000542621
 C          1.9568301665        0.8282058541        0.0494523854
 C          0.5868149167        1.3619744347       -0.1057130648
 O          0.3834674316        2.5715756644       -0.1861574788
 H         -4.5014565617       -0.4710489586        2.4652187505
 H         -5.4005509828       -1.4351923236        1.2864420273
 H         -5.9026286019        0.2128669380        1.6313140250
 H         -5.4826097332        1.0919093715       -0.8981398712
 H         -5.5009768811       -0.6563189701       -1.0784077928
 H         -4.1628856936        0.2904422052       -1.7401794163
 H         -2.4933209254        0.2805411564        1.6446026072
 H         -1.8312987325        2.0340102638       -0.2123781748
 H         -2.2217817606        0.7711381420       -1.3729076074
 H         -2.1241937735       -1.4592187996       -0.1243290146
 H          3.6533608462       -2.0806132010        0.3670817348
 H          5.5647874503       -0.4973353502        0.4558476023
 H          5.1481752588        1.9322095881        0.2831015416
 H          2.8256714499        2.7676286155        0.0232439893
  32
 Etot=  -51.4236890390 g norm=  0.00025841
 C         -5.0751445114       -0.4965698669        1.3475642264
 C         -4.1920421165        0.1131947592        0.3005699880
 C         -4.9007234466        0.4933824645       -0.9645347327
 C         -2.8960297161        0.3122491040        0.5278705429
 C         -1.9105348803        0.9608697149       -0.4046389090
 C         -0.5181497090        0.4022971917       -0.2633339524
 C         -0.2784722069       -0.9346077329       -0.2959391072
 O         -1.2294712389       -1.8623289112       -0.4491700533
 C          1.0866723323       -1.5135370050       -0.1786987853
 O          1.2641077578       -2.7214836737       -0.2336660584
 C          2.1849921538       -0.5535219748        0.0010069719
 C          3.4881325683       -1.0243672691        0.1360702842
 C          4.5397162990       -0.1392606886        0.3083458005
 C          4.2969299912        1.2247044468        0.3449737629
 C          3.0028497184        1.7032392076        0.2105100456
 C          1.9390927693        0.8249961754        0.0388039537
 C          0.5691848997        1.3639879648       -0.0974099539
 O          0.3593311738        2.5748552106       -0.0711262153
 H         -5.9055854686        0.1721667604        1.5678499180
 H         -4.5279543847       -0.6895431275        2.2662542124
 H         -5.4944863908       -1.4347601558        0.9864304093
 H         -5.3487321556        1.4797490303       -0.8480437647
 H         -5.7002673493       -0.2128249593       -1.1752158510
 H         -4.2327961945        0.5321634230       -1.8201594941
 H         -2.4854221598        0.0419522427        1.4931396150
 H         -1.8491214088        2.0326714579       -0.1888714372
 H         -2.2342488139        0.8636613777       -1.4445503775
 H         -2.1200849995       -1.4594351819       -0.4456242536
 H          3.6513937803       -2.0911321640        0.1037173986
 H          5.5451185636       -0.5146046482        0.4136538413
 H          5.1125089448        1.9174327994        0.4790973656
 H          2.7913090385        2.7618281110        0.2367214279
  32
 Etot=  -51.4249886988 g norm=  0.00036266
 C         -4.6940558284       -0.0345793557        1.3984033025
 C         -3.4654849751        0.3632199967        0.6395106924
 C         -2.5058664812        1.2298898442        1.3975622135
 C         -3.2533257881       -0.0529113720       -0.6064147149
 C         -2.0621198561        0.3043365492       -1.4581374235
 C         -0.7269523467        0.0412283005       -0.8059340515
 C         -0.4499112708       -1.1313783833       -0.1787728540
 O         -1.3103781512       -2.1496891839       -0.0752535633
 C          0.8581365507       -1.4108758864        0.4702094616
 O          1.0573148837       -2.4659302491        1.0544656064
 C          1.8759975351       -0.3562404023        0.3616604954
 C          3.1358529823       -0.5625182290        0.9165991910
 C          4.1112143102        0.4170465702        0.8259779690
 C          3.8334285525        1.6124174188        0.1821369142
 C          2.5805971653        1.8282393395       -0.3708076546
 C          1.5946932898        0.8516947857       -0.2888458937
 C          0.2661724671        1.1109498447       -0.8825445548
 O          0.0113430022        2.1896591901       -1.4147286214
 H         -5.2776463097        0.8492937994        1.6513613075
 H         -4.4127558695       -0.5223370169        2.3304137509
 H         -5.3186059337       -0.7098682333        0.8205125889
 H         -1.8280165787        0.6120101728        1.9883214139
 H         -3.0463456320        1.8786965515        2.0824597330
 H         -1.9068055080        1.8461485106        0.7316506526
 H         -4.0093544668       -0.6566096179       -1.0902454170
 H         -2.0862045025        1.3686247135       -1.7141789486
 H         -2.1108859623       -0.2502005972       -2.3989686686
 H         -2.1853083727       -1.9118408291       -0.4385662530
 H          3.3272181069       -1.5014354005        1.4140372919
 H          5.0846424621        0.2462860699        1.2572046449
 H          4.5897138224        2.3777401478        0.1093264592
 H          2.3426595699        2.7528610177       -0.8753169633
  32
 Etot=  -51.4237131967 g norm=  0.00034391
 C         -5.0776629830       -0.6120116621        1.1638665889
 C         -4.1914698204        0.1171351305        0.1977935797
 C         -4.8923815823        0.5815204407       -1.0421486406
 C         -2.9074600334        0.3282080840        0.4762751363
 C         -1.9054648521        1.0791235633       -0.3567329148
 C         -0.5237757490        0.4810886581       -0.2804431100
 C         -0.3059593504       -0.8429108757       -0.4933940968
 O         -1.2694014844       -1.7244936329       -0.7808715630
 C          1.0476920866       -1.4571749047       -0.4416082584
 O          1.2041369292       -2.6515650146       -0.6478310982
 C          2.1615949064       -0.5479834583       -0.1376197424
 C          3.4568758633       -1.0537969712       -0.0720155591
 C          4.5235939021       -0.2165559052        0.2111754181
 C          4.3034424875        1.1339006458        0.4309561517
 C          3.0168930416        1.6467063993        0.3690632368
 C          1.9383458203        0.8167339807        0.0858796911
 C          0.5771166147        1.3908927316        0.0278613290
 O          0.3852958161        2.5878056309        0.2315092596
 H         -5.4966687421       -1.5011061299        0.6948545588
 H         -5.9090110654        0.0258320164        1.4600632254
 H         -4.5326903287       -0.9105557824        2.0553040386
 H         -5.5718937892        1.3947706896       -0.7900027384
 H         -5.4892081783       -0.2275475313       -1.4592203398
 H         -4.2069207783        0.9413124800       -1.8026774316
 H         -2.5156397085       -0.0225412419        1.4235402062
 H         -1.8273909567        2.1100945353        0.0039435806
 H         -2.2182335006        1.1275740035       -1.4028019597
 H         -2.1537707923       -1.3114356326       -0.7297467115
 H          3.6022939852       -2.1092621025       -0.2467080366
 H          5.5229078425       -0.6188535979        0.2595056027
 H          5.1308102011        1.7896078071        0.6512518709
 H          2.8232602002        2.6955620809        0.5377590380
  32
 Etot=  -51.4236682594 g norm=  0.00032747
 C         -5.1260151961       -0.1034273251        1.4134716640
 C         -4.2098902456        0.3742135800        0.3301847301
 C         -4.8599016750        1.0748570322       -0.8267611539
 C         -2.8955638503        0.1857223666        0.3865443668
 C         -1.9377340598        0.6641594269       -0.6745254298
 C         -0.5252773397        0.2038685106       -0.4395394068
 C         -0.2047246928       -1.1152035064       -0.3871573404
 O         -1.0862060307       -2.1087540044       -0.5462254918
 C          1.1810340819       -1.6013619701       -0.1519029558
 O          1.4313694169       -2.7972081201       -0.1234209955
 C          2.2069637719       -0.5670205092        0.0416559220
 C          3.5248822262       -0.9486051663        0.2775274942
 C          4.5095292590        0.0076363922        0.4642681565
 C          4.1842632083        1.3539796028        0.4161537168
 C          2.8750414404        1.7437401312        0.1802284931
 C          1.8779604103        0.7936552994       -0.0080889750
 C          0.4908125082        1.2387576340       -0.2599539981
 O          0.2101407522        2.4338938529       -0.3181387884
 H         -4.5774032354       -0.6207498758        2.1960455227
 H         -5.8728683393       -0.7796487731        0.9997548768
 H         -5.6521476051        0.7415210317        1.8555824131
 H         -4.7423725875        0.4983594134       -1.7435497770
 H         -4.3990486654        2.0476693869       -0.9905824447
 H         -5.9206745364        1.2171093668       -0.6447373080
 H         -2.4542565381       -0.2983605892        1.2472747305
 H         -1.9252016574        1.7589843764       -0.6934161584
 H         -2.2789344867        0.3355839677       -1.6624516949
 H         -1.9922450100       -1.7734262457       -0.6669022502
 H          3.7528907350       -2.0033943366        0.3099986159
 H          5.5272769286       -0.2987275353        0.6465435830
 H          4.9475636360        2.1019133515        0.5610697883
 H          2.6002835524        2.7871030841        0.1373315568
  32
 Etot=  -51.4237001767 g norm=  0.00041405
 C         -5.0850256707       -0.5594578357        1.2242018161
 C         -4.1951637665        0.1179013126        0.2248958332
 C         -4.8975229713        0.5630854116       -1.0218602994
 C         -2.9035474476        0.3116860201        0.4799706186
 C         -1.9066524230        1.0224104767       -0.3933862035
 C         -0.5197507742        0.4422159769       -0.2879719259
 C         -0.2890738084       -0.8888526519       -0.4322330181
 O         -1.2445533438       -1.7936260096       -0.6707162978
 C          1.0709450024       -1.4859813513       -0.3528027179
 O          1.2394212164       -2.6876763165       -0.4987071270
 C          2.1761485244       -0.5511393391       -0.0982093120
 C          3.4766404592       -1.0397782584       -0.0089176454
 C          4.5347835539       -0.1785891200        0.2310140971
 C          4.3010180774        1.1789075361        0.3834752867
 C          3.0094855639        1.6749174086        0.2965766508
 C          1.9393637975        0.8207838267        0.0562889858
 C          0.5725147948        1.3777155578       -0.0296605694
 O          0.3691405146        2.5817996528        0.1110259519
 H         -4.5433223289       -0.8127906369        2.1313434824
 H         -5.5035513960       -1.4710751634        0.7999491630
 H         -5.9159743353        0.0943440936        1.4837632458
 H         -5.4461452753        1.4825158486       -0.8199403446
 H         -5.6174036798       -0.1898693186       -1.3355899090
 H         -4.2122862608        0.7571922305       -1.8413952691
 H         -2.5041751303       -0.0148587846        1.4325660585
 H         -1.8374000720        2.0726928168       -0.0913646528
 H         -2.2226776302        1.0112330284       -1.4398196808
 H         -2.1329009689       -1.3875840359       -0.6397355071
 H          3.6326777833       -2.1011246354       -0.1310370265
 H          5.5382478270       -0.5674746887        0.2985555950
 H          5.1218555741        1.8529962086        0.5701095231
 H          2.8050310557        2.7288439096        0.4126956645
  32
 Etot=  -51.4237114505 g norm=  0.00070825
 C         -5.0157745112       -0.5793085224        1.4698146565
 C         -4.1507482251        0.0079314724        0.3942722682
 C         -4.8650434210        0.2506784413       -0.9002480779
 C         -2.8721237892        0.2946572659        0.6273413767
 C         -1.8945891804        0.9314845804       -0.3213060598
 C         -0.4991019594        0.3798813512       -0.1763721006
 C         -0.2558447391       -0.9567580087       -0.1771230801
 O         -1.2052477756       -1.8905200716       -0.2989542695
 C          1.1117461881       -1.5289226395       -0.0555856044
 O          1.2914888646       -2.7376075724       -0.0762859727
 C          2.2093133170       -0.5616711669        0.0852420981
 C          3.5152089287       -1.0255772060        0.2172926027
 C          4.5663786495       -0.1336733168        0.3527162381
 C          4.3202217003        1.2301263891        0.3556173095
 C          3.0232609260        1.7017371566        0.2243661285
 C          1.9599071481        0.8166838207        0.0892158643
 C          0.5867797019        1.3483778704       -0.0440140972
 O          0.3733179024        2.5589297292       -0.0422296888
 H         -5.4036632259       -1.5474131104        1.1560063590
 H         -5.8685560048        0.0712023261        1.6569859759
 H         -4.4646473251       -0.7074228561        2.3974224277
 H         -5.5244988942        1.1111386146       -0.7936373199
 H         -5.4829626003       -0.6085926434       -1.1528306003
 H         -4.1863854692        0.4496118454       -1.7236219022
 H         -2.4684421811        0.1098125549        1.6156021554
 H         -1.8355018021        2.0061792711       -0.1200311923
 H         -2.2194833902        0.8172534857       -1.3585429527
 H         -2.0968196281       -1.4885268067       -0.2950577999
 H          3.6808417929       -2.0924668470        0.2120904310
 H          5.5740225066       -0.5036213445        0.4555811028
 H          5.1355821041        1.9281985650        0.4600831670
 H          2.8092711873        2.7600933831        0.2244372588
  32
 Etot=  -51.4249804216 g norm=  0.00025926
 C         -4.6909028749       -0.6183211836        1.1203092123
 C         -3.4617582168        0.0513187933        0.5868060349
 C         -2.4988597135        0.5324372275        1.6297860153
 C         -3.2519501428        0.1786052763       -0.7207377781
 C         -2.0582846518        0.8467626100       -1.3540554280
 C         -0.7263014021        0.3227716357       -0.8755041926
 C         -0.4573176669       -1.0070797434       -0.8114842835
 O         -1.3244167690       -1.9663906215       -1.1515366017
 C          0.8511639970       -1.5456565891       -0.3549025307
 O          1.0526514970       -2.7502734066       -0.3063623129
 C          1.8667419813       -0.5526664592        0.0224955362
 C          3.1191915797       -0.9848735932        0.4493993175
 C          4.0919069084       -0.0676122309        0.8119745985
 C          3.8189467125        1.2897724241        0.7527111755
 C          2.5742989047        1.7297558295        0.3294835581
 C          1.5910990810        0.8190454946       -0.0397899040
 C          0.2724673160        1.3162979450       -0.4855281616
 O          0.0294165576        2.5211678826       -0.5184791340
 H         -4.4096840496       -1.4505838665        1.7639048415
 H         -5.3231769185       -0.9894946853        0.3184043000
 H         -5.2665413508        0.0841042259        1.7210430783
 H         -3.0368712660        0.8473931438        2.5207819979
 H         -1.8989188593        1.3650745682        1.2711932736
 H         -1.8220499695       -0.2739876239        1.9163657973
 H         -4.0104896946       -0.1729230816       -1.4073907365
 H         -2.0707109905        1.9213243377       -1.1446244481
 H         -2.1137555419        0.7329881058       -2.4398468172
 H         -2.1964084225       -1.5917132850       -1.3809699523
 H          3.3065080962       -2.0473719803        0.4882603741
 H          5.0591949574       -0.4129848990        1.1403635489
 H          4.5728887003        2.0074412609        1.0346837308
 H          2.3410214172        2.7827437464        0.2763317822
  32
 Etot=  -51.4237232930 g norm=  0.00037981
 C         -5.0666753722       -0.4854555309       -1.2513774372
 C         -4.1635890794        0.0050632541       -0.1590881263
 C         -4.8212172799        0.1026394409        1.1840576092
 C         -2.9010427087        0.3388947544       -0.4161912785
 C         -1.8912459317        0.8912627922        0.5508706312
 C         -0.5021500835        0.3584582736        0.3069860950
 C         -0.2597995117       -0.9720500888        0.1775803001
 O         -1.2040397626       -1.9163411397        0.2473091798
 C          1.1020831461       -1.5270007071       -0.0461074605
 O          1.2798859083       -2.7312811083       -0.1539933355
 C          2.1965769943       -0.5492135963       -0.1227804877
 C          3.4988735202       -0.9969059205       -0.3269043201
 C          4.5469726794       -0.0945388980       -0.4049227213
 C          4.3010497975        1.2635951116       -0.2799460487
 C          3.0076396792        1.7190649434       -0.0765127109
 C          1.9475590740        0.8233738113        0.0041719005
 C          0.5785927249        1.3379937707        0.2207473956
 O          0.3642074420        2.5439406184        0.3242257178
 H         -5.9464703939        0.1521179614       -1.3205295594
 H         -5.4090858310       -1.4958181198       -1.0321806968
 H         -4.5612790482       -0.4892954789       -2.2131936048
 H         -5.4425596386        0.9969168392        1.2190235764
 H         -4.1054185028        0.1616026855        1.9982384767
 H         -5.4689675716       -0.7560566618        1.3470776290
 H         -2.5382846055        0.2635137018       -1.4342877938
 H         -2.1797161321        0.6837752545        1.5843524150
 H         -1.8388692297        1.9797382475        0.4446030929
 H         -2.0961830649       -1.5198095586        0.3062859236
 H          3.6642882987       -2.0595937984       -0.4218824278
 H          5.5519274998       -0.4520061096       -0.5632240107
 H          5.1138750627        1.9698242253       -0.3398884539
 H          2.7937838566        2.7727719684        0.0238338344
  32
 Etot=  -51.4237537449 g norm=  0.00038131
 C         -5.0202956078       -0.1299449013       -1.4923026534
 C         -4.1471429541        0.0687075653       -0.2890000770
 C         -4.8629739573       -0.0783956851        1.0192082818
 C         -2.8598627462        0.3773798449       -0.4217640595
 C         -1.8799390779        0.6659114841        0.6822680800
 C         -0.4766808614        0.2339232040        0.3426780546
 C         -0.1996957240       -1.0247030226       -0.0870284862
 O         -1.1180413618       -1.9835677817       -0.2464561213
 C          1.1769919833       -1.4796311620       -0.4199370186
 O          1.3858971866       -2.6208390221       -0.8039785179
 C          2.2467481810       -0.4854015543       -0.2557734402
 C          3.5609354175       -0.8427237572       -0.5445033167
 C          4.5864819146        0.0767101021       -0.3969461620
 C          4.3059303014        1.3616565171        0.0400507711
 C          3.0002843060        1.7271419894        0.3289926601
 C          1.9626442715        0.8132704478        0.1854541548
 C          0.5799063692        1.2310460312        0.5002183962
 O          0.3349580541        2.3736717454        0.8812135800
 H         -5.4357386644       -1.1366281461       -1.4970482768
 H         -4.4667522296        0.0243327247       -2.4144610865
 H         -5.8543495429        0.5694553000       -1.4641885818
 H         -5.4710583693        0.8070862719        1.2008270836
 H         -4.1834746483       -0.1940328099        1.8577907901
 H         -5.5311733697       -0.9365050513        0.9858700150
 H         -2.4516523412        0.4970908929       -1.4179770797
 H         -2.1886383152        0.1909232117        1.6169394316
 H         -1.8453024062        1.7446749887        0.8676167182
 H         -2.0201559931       -1.6454187376       -0.0886559865
 H          3.7532684206       -1.8494288830       -0.8840196966
 H          5.6010621358       -0.2105018715       -0.6226057453
 H          5.1013599363        2.0804387969        0.1570769789
 H          2.7597063329        2.7230796219        0.6699581404
  32
 Etot=  -51.4249720846 g norm=  0.00049353
 C         -4.6503594341       -0.1886670203        1.4707544307
 C         -3.4479568170        0.2855478142        0.7137953364
 C         -2.4933231775        1.1278017980        1.5048378604
 C         -3.2523261364       -0.0478695024       -0.5593867543
 C         -2.0845987118        0.3871959119       -1.4074716908
 C         -0.7335598763        0.0885587938       -0.8042889361
 C         -0.4324036941       -1.1285111315       -0.2816805375
 O         -1.2823813165       -2.1598324588       -0.2427325359
 C          0.8951306073       -1.4497427924        0.3058798163
 O          1.1253738968       -2.5560283081        0.7718878228
 C          1.8933049144       -0.3711924657        0.2841567459
 C          3.1620389019       -0.6041991053        0.8073538638
 C          4.1195040477        0.3969155216        0.7976725873
 C          3.8152785388        1.6396881584        0.2652513090
 C          2.5539779546        1.8816188132       -0.2567468861
 C          1.5852188182        0.8847009114       -0.2536358302
 C          0.2468210891        1.1724341309       -0.8111436323
 O         -0.0262468030        2.2853555806       -1.2568897176
 H         -4.3373341151       -0.7251426693        2.3652234305
 H         -5.2701055860       -0.8435569893        0.8647886489
 H         -5.2500049018        0.6627432893        1.7891831436
 H         -1.7976337876        0.4913893378        2.0535531352
 H         -3.0357906419        1.7294367948        2.2300747940
 H         -1.9136430907        1.7891021067        0.8658211655
 H         -4.0044759521       -0.6385012225       -1.0652046000
 H         -2.1235529759        1.4674594873       -1.5808198621
 H         -2.1486751486       -0.0952205321       -2.3863461898
 H         -2.1663407383       -1.9010622566       -0.5678194179
 H          3.3737494118       -1.5804795664        1.2169060694
 H          5.0995564201        0.2060031675        1.2048918470
 H          4.5576412042        2.4218900349        0.2557374461
 H          2.2959132198        2.8430956940       -0.6749760034
  32
 Etot=  -51.4239727498 g norm=  0.00044576
 C         -4.5146200086        0.6336501210       -1.8351723606
 C         -3.6480267741        0.8348912035       -0.6290059208
 C         -3.6049958787        2.2383603021       -0.0965268750
 C         -2.9937108727       -0.1801085242       -0.0756308528
 C         -2.0982321975       -0.0944742130        1.1339583334
 C         -0.6655587793       -0.2969328154        0.7064759526
 C         -0.1369571962       -1.5311113803        0.5009014406
 O         -0.7976019517       -2.6803032608        0.6905496304
 C          1.2613380942       -1.7452653031        0.0428607561
 O          1.7068799701       -2.8737041732       -0.1075064674
 C          2.0555242541       -0.5350729808       -0.2087484628
 C          3.3696493496       -0.6601941058       -0.6507939593
 C          4.1380408758        0.4663880041       -0.8939516148
 C          3.5979646916        1.7275640165       -0.6974551037
 C          2.2904821373        1.8620990327       -0.2570186452
 C          1.5095444637        0.7390398344       -0.0088539793
 C          0.1194940676        0.9122356941        0.4627451370
 O         -0.3486830463        2.0330468177        0.6465202861
 H         -4.5324419902       -0.4080479458       -2.1445412965
 H         -4.1443863196        1.2380569152       -2.6624345660
 H         -5.5323836860        0.9550336969       -1.6187669675
 H         -2.5801405762        2.5519486380        0.0948081006
 H         -4.1593437000        2.3092096612        0.8385899818
 H         -4.0500959167        2.9275989420       -0.8083318824
 H         -3.0600527200       -1.1593967997       -0.5318477763
 H         -2.3938764652       -0.8419301116        1.8743970474
 H         -2.1787314523        0.8897224931        1.5919927170
 H         -1.6987232408       -2.5318544689        1.0251043555
 H          3.7669955797       -1.6535519556       -0.7960129859
 H          5.1552248584        0.3585545748       -1.2353453632
 H          4.1924711409        2.6072980475       -0.8862624308
 H          1.8508825936        2.8353705354       -0.0976952388
  32
 Etot=  -51.4249989918 g norm=  0.00016764
 C         -4.7373098355       -0.2766005656        1.1729699533
 C         -3.5090520793        0.2345375270        0.4847613455
 C         -2.5825379741        1.0330915916        1.3511033116
 C         -3.2678499977       -0.0326109800       -0.7961052474
 C         -2.0688199989        0.4432586950       -1.5759814104
 C         -0.7426898848        0.1031148756       -0.9403815782
 C         -0.4633509371       -1.1455259782       -0.4844297051
 O         -1.3138167598       -2.1753915128       -0.5455316947
 C          0.8385279554       -1.5065047816        0.1365656237
 O          1.0481712750       -2.6400922727        0.5429220827
 C          1.8368905736       -0.4316272335        0.2242196959
 C          3.0828697721       -0.7007193153        0.7835200107
 C          4.0401812790        0.2963060014        0.8763991144
 C          3.7580235388        1.5713920161        0.4126016303
 C          2.5191203749        1.8493815817       -0.1439149378
 C          1.5512636814        0.8566931592       -0.2448801611
 C          0.2376751703        1.1823553774       -0.8393044920
 O         -0.0161095626        2.3215236226       -1.2261093353
 H         -4.4556245952       -0.8645918017        2.0452341473
 H         -5.3379383062       -0.8931701552        0.5102461108
 H         -5.3450515884        0.5579184631        1.5194502670
 H         -1.8965493732        0.3693214579        1.8793169322
 H         -3.1481463243        1.5875002087        2.0958192226
 H         -1.9905555050        1.7341319920        0.7685635102
 H         -4.0012371869       -0.5945342981       -1.3590661374
 H         -2.0973608936        1.5318153979       -1.6886356548
 H         -2.0986920197        0.0176764035       -2.5823571467
 H         -2.1842031525       -1.8959139470       -0.8890085587
 H          3.2778202045       -1.7015587982        1.1384699050
 H          5.0031099129        0.0768160074        1.3093007565
 H          4.5003901032        2.3505281923        0.4826438003
 H          2.2783629873        2.8362400098       -0.5101940929
  32
 Etot=  -51.4236607125 g norm=  0.00045191
 C         -4.9785135574       -0.2461348538       -1.4732087255
 C         -4.1068275462       -0.0077376909       -0.2757161269
 C         -4.7814635212       -0.2835421594        1.0335099873
 C         -2.8585854305        0.4312925631       -0.4190734430
 C         -1.8751471275        0.7682549742        0.6670187655
 C         -0.4775633288        0.3021263057        0.3451720047
 C         -0.2236723491       -0.9749411979       -0.0424116031
 O         -1.1622383571       -1.9178061975       -0.1763680833
 C          1.1451751585       -1.4687611500       -0.3501047434
 O          1.3337962985       -2.6278267466       -0.6884755505
 C          2.2327642627       -0.4892304300       -0.2184894251
 C          3.5403691446       -0.8808462977       -0.4919976249
 C          4.5826539659        0.0242547421       -0.3763725260
 C          4.3254751287        1.3289973935        0.0136763862
 C          3.0265250726        1.7285261156        0.2875910984
 C          1.9721852240        0.8294458005        0.1756138361
 C          0.5969747218        1.2839504415        0.4730198044
 O          0.3724746439        2.4437279640        0.8126159957
 H         -5.8691072237        0.3773948752       -1.4144106793
 H         -5.3053552313       -1.2844497758       -1.5022561962
 H         -4.4544798960       -0.0185237514       -2.3973285531
 H         -5.5324107087        0.4827064751        1.2221335300
 H         -4.0908245224       -0.2894924187        1.8707287668
 H         -5.2942028261       -1.2428189327        0.9936331111
 H         -2.4858354523        0.6220324004       -1.4183163089
 H         -2.1831544116        0.3463960542        1.6266134289
 H         -1.8280530064        1.8549447016        0.7921196982
 H         -2.0578993129       -1.5448208148       -0.0534095925
 H          3.7143812917       -1.9026104279       -0.7943539643
 H          5.5918275408       -0.2894850861       -0.5905897936
 H          5.1337982107        2.0370221360        0.1051411732
 H          2.8041621951        2.7403423382        0.5922509262
  32
 Etot=  -51.4236796109 g norm=  0.00041143
 C         -5.0734776436       -0.0245084667        1.5511521656
 C         -4.1755561462        0.4372168853        0.4459658411
 C         -4.8489476230        1.0887760469       -0.7264268390
 C         -2.8568899893        0.2788986875        0.4991915872
 C         -1.9139496541        0.7435051235       -0.5805466255
 C         -0.5050956737        0.2570589025       -0.3775869568
 C         -0.2111130576       -1.0676189413       -0.3110526888
 O         -1.1174014478       -2.0448433008       -0.4252487249
 C          1.1709820116       -1.5796425126       -0.1119246314
 O          1.3976017001       -2.7800617196       -0.0758469614
 C          2.2232809467       -0.5646505126        0.0373071410
 C          3.5388561145       -0.9706980943        0.2434849470
 C          4.5479121217       -0.0329629729        0.3895135045
 C          4.2495188664        1.3191267594        0.3301897530
 C          2.9428266928        1.7331739070        0.1229075265
 C          1.9214960125        0.8018385269       -0.0247516972
 C          0.5377765095        1.2724893358       -0.2478244211
 O          0.2814645173        2.4722660370       -0.3226238485
 H         -5.8004315509       -0.7393328772        1.1677923787
 H         -5.6240423157        0.8206831104        1.9617262521
 H         -4.5067945296       -0.4935573363        2.3510742564
 H         -4.4419533667        2.0854099645       -0.8916534131
 H         -5.9187472240        1.1718641284       -0.5596774373
 H         -4.6859951742        0.5140969557       -1.6375086602
 H         -2.3997483016       -0.1647079389        1.3733834947
 H         -1.8821450208        1.8380807402       -0.5975639817
 H         -2.2809044090        0.4234910117       -1.5619182303
 H         -2.0204890192       -1.6927602009       -0.5190386385
 H          3.7457220143       -2.0295091907        0.2856152407
 H          5.5635563700       -0.3582529076        0.5490998587
 H          5.0317442062        2.0527330236        0.4439730146
 H          2.6886934959        2.7814058885        0.0719039560
  32
 Etot=  -51.4237353352 g norm=  0.00035907
 C         -5.0315461208       -0.4623136936       -1.3089940013
 C         -4.1449129339       -0.0344836766       -0.1776111050
 C         -4.8258290835       -0.0032921414        1.1568054811
 C         -2.8758722064        0.3026263220       -0.3951482262
 C         -1.8802746530        0.7969401332        0.6171535282
 C         -0.4813814177        0.3034246079        0.3482881518
 C         -0.2183708474       -1.0083270577        0.1116017176
 O         -1.1487102498       -1.9685683243        0.0925670789
 C          1.1530896865       -1.5228446702       -0.1470582931
 O          1.3478706004       -2.7089445099       -0.3682598978
 C          2.2357631890       -0.5295389886       -0.1161073983
 C          3.5471833068       -0.9419857625       -0.3353609360
 C          4.5845272610       -0.0242462666       -0.3117469844
 C          4.3185880272        1.3141356120       -0.0694345432
 C          3.0157286426        1.7346154367        0.1486789005
 C          1.9663676664        0.8231173375        0.1284604401
 C          0.5868168675        1.3002364227        0.3631447760
 O          0.3541330916        2.4901558723        0.5655207847
 H         -5.9063363830        0.1837881880       -1.3609439187
 H         -5.3838016889       -1.4802698821       -1.1478226038
 H         -4.5093614498       -0.4202603148       -2.2608825125
 H         -4.1250581882        0.0430704119        1.9845042458
 H         -5.4550532243       -0.8828387347        1.2765600856
 H         -5.4702785841        0.8733684595        1.2138065059
 H         -2.4971344820        0.2802243053       -1.4100984412
 H         -2.1731294793        0.5107098172        1.6305136701
 H         -1.8427885581        1.8909986106        0.5919333922
 H         -2.0473783203       -1.5922681821        0.1800023516
 H          3.7282163014       -1.9898175578       -0.5222366242
 H          5.5969294841       -0.3543609629       -0.4817578849
 H          5.1231085598        2.0320446717       -0.0497137279
 H          2.7863237903        2.7726167341        0.3381792348
  32
 Etot=  -51.4239715929 g norm=  0.00045419
 C         -4.5347882228        0.4702958447       -1.7529093490
 C         -3.6672761937        0.7548670301       -0.5644515250
 C         -3.6454641413        2.1869499089       -0.1128407872
 C         -2.9929233489       -0.2155920316        0.0421671367
 C         -2.0907066050       -0.0454549639        1.2376156687
 C         -0.6600957119       -0.2638482188        0.8115008232
 C         -0.1204821830       -1.5043707723        0.6904571479
 O         -0.7676466219       -2.6433229391        0.9679278115
 C          1.2772753639       -1.7366546695        0.2399857908
 O          1.7385919127       -2.8672184736        0.1818999418
 C          2.0511396581       -0.5409408475       -0.1206658754
 C          3.3589709832       -0.6855425086       -0.5752775503
 C          4.1075029523        0.4267662208       -0.9234222421
 C          3.5539249536        1.6930504881       -0.8193091571
 C          2.2532041931        1.8470973501       -0.3653700740
 C          1.4918198912        0.7385054369       -0.0131101081
 C          0.1085111070        0.9322267442        0.4704108886
 O         -0.3682060685        2.0587949599        0.5829434268
 H         -4.5334268400       -0.5870692835       -2.0041510255
 H         -4.1800942796        1.0350663627       -2.6141526777
 H         -5.5575644757        0.7833642314       -1.5490500685
 H         -2.6244705519        2.5296813068        0.0467616773
 H         -4.1897417706        2.3004549250        0.8238408526
 H         -4.1121424363        2.8262747740       -0.8567000007
 H         -3.0451427293       -1.2207794869       -0.3562346399
 H         -2.3746944373       -0.7460995479        2.0268746711
 H         -2.1758697387        0.9655286199        1.6320284000
 H         -1.6693571637       -2.4803265613        1.2941808972
 H          3.7667603912       -1.6826215616       -0.6477729551
 H          5.1195755528        0.3038371693       -1.2746844863
 H          4.1330081739        2.5617612777       -1.0894991445
 H          1.8042565453        2.8249061014       -0.2748969134
  32
 Etot=  -51.4237367980 g norm=  0.00041296
 C         -5.1440884342       -0.5171621803        1.2295827907
 C         -4.2183038555        0.1688637632        0.2737030469
 C         -4.8696579834        0.8613208544       -0.8889152823
 C         -2.9002297564        0.1648637748        0.4498752195
 C         -1.9219315878        0.8644532407       -0.4562619576
 C         -0.5179174078        0.3373072990       -0.3289752503
 C         -0.2351270436       -0.9821189977       -0.4859977210
 O         -1.1515019338       -1.9175130494       -0.7594218784
 C          1.1431360339       -1.5313622478       -0.3830756125
 O          1.3586090254       -2.7240373937       -0.5413427794
 C          2.2072096124       -0.5608955328       -0.0891664852
 C          3.5227272602       -1.0031005414        0.0205861704
 C          4.5431890494       -0.1078793354        0.2963666871
 C          4.2562588195        1.2374055281        0.4656759666
 C          2.9494052558        1.6872113024        0.3587960617
 C          1.9168001539        0.7987736340        0.0814158396
 C          0.5330986723        1.3074236516       -0.0295183400
 O          0.2829316318        2.5011498288        0.1230315341
 H         -5.7567033200       -1.2455244814        0.7001438538
 H         -5.8145632741        0.2108628776        1.6842843080
 H         -4.5951929568       -1.0245513674        2.0183915962
 H         -5.9501784444        0.8534301503       -0.7816714636
 H         -4.6172731244        0.3676123929       -1.8268671780
 H         -4.5334833347        1.8943119350       -0.9569395865
 H         -2.4732633182       -0.3158385484        1.3202503968
 H         -1.8892871464        1.9317856583       -0.2120897616
 H         -2.2500358668        0.7856398131       -1.4973073638
 H         -2.0528609171       -1.5454886409       -0.7640613207
 H          3.7205075946       -2.0556454872       -0.1161169898
 H          5.5589193924       -0.4606148010        0.3780960012
 H          5.0475873564        1.9379748728        0.6802900487
 H          2.7037419170        2.7308675199        0.4871026220
  32
 Etot=  -51.4239587611 g norm=  0.00071074
 C         -4.4261431076        0.4720388539        1.9129223055
 C         -3.5779190036        0.7498212547        0.7088011637
 C         -3.5191671202        2.1891328358        0.2845155856
 C         -2.9542590998       -0.2315391681        0.0665237846
 C         -2.0830815260       -0.0703794029       -1.1531993564
 C         -0.6407610061       -0.2980012194       -0.7721657433
 C         -0.1159961382       -1.5430542080       -0.6338024923
 O         -0.7904433257       -2.6782177632       -0.8553209072
 C          1.2916580330       -1.7860091229       -0.2208359594
 O          1.7306345285       -2.9229351445       -0.1248864373
 C          2.1030286659       -0.5926976806        0.0551085924
 C          3.4277832562       -0.7448938570        0.4547680494
 C          4.2125817104        0.3655307009        0.7193572118
 C          3.6784847339        1.6373984495        0.5862972783
 C          2.3602657930        1.7988787198        0.1887734635
 C          1.5626979091        0.6923814196       -0.0796467297
 C          0.1608817048        0.8944660139       -0.5023648343
 O         -0.3030871453        2.0253234336       -0.6266225482
 H         -5.4397516045        0.8323524553        1.7434587222
 H         -4.0263628080        0.9996913199        2.7780055019
 H         -4.4630108266       -0.5904473431        2.1386338271
 H         -2.4954439237        2.4949765554        0.0755571773
 H         -3.9193606361        2.8307161990        1.0647091533
 H         -4.1081497923        2.3439210483       -0.6190853552
 H         -3.0308491485       -1.2408297271        0.4498881578
 H         -2.1727556984        0.9400436838       -1.5483212876
 H         -2.3946697328       -0.7711208415       -1.9319668731
 H         -1.6977882761       -2.5092456184       -1.1620385921
 H          3.8202229435       -1.7461434315        0.5509487138
 H          5.2378252706        0.2365009399        1.0276645323
 H          4.2859135109        2.5047153909        0.7906792588
 H          1.9252435205        2.7810981353        0.0786974853
  32
 Etot=  -51.4236877136 g norm=  0.00027204
 C         -5.1231667626       -0.2290062918        1.4491536666
 C         -4.2103223216        0.3374432329        0.4064780398
 C         -4.8725379053        1.0564170240       -0.7325712676
 C         -2.8892630401        0.2130898306        0.4866857392
 C         -1.9304562602        0.7865801710       -0.5241711082
 C         -0.5217606910        0.2890637948       -0.3476489277
 C         -0.2252282835       -1.0364638112       -0.3727516740
 O         -1.1287082164       -2.0043400367       -0.5633310356
 C          1.1557752540       -1.5594850243       -0.1959127679
 O          1.3825536201       -2.7599362008       -0.2296834921
 C          2.2070111322       -0.5550005790        0.0184557894
 C          3.5229100120       -0.9721582598        0.1987543853
 C          4.5314174165       -0.0445996119        0.4021674401
 C          4.2321711758        1.3084050742        0.4261021568
 C          2.9248898139        1.7334896475        0.2471510888
 C          1.9039227591        0.8123433583        0.0430080458
 C          0.5189322334        1.2946699461       -0.1444454983
 O          0.2600291656        2.4961888641       -0.1335633282
 H         -5.8246166433       -0.9264511098        0.9931359194
 H         -5.7023942587        0.5699049541        1.9100731266
 H         -4.5652203263       -0.7471362439        2.2246047766
 H         -4.6805141954        0.5492676295       -1.6775972098
 H         -4.4826153013        2.0698090461       -0.8197642632
 H         -5.9470518983        1.1076433405       -0.5829432499
 H         -2.4433235286       -0.2807868015        1.3396625307
 H         -1.9040569208        1.8776117271       -0.4316582746
 H         -2.2783302056        0.5651010486       -1.5388810929
 H         -2.0318328941       -1.6465533693       -0.6367717065
 H          3.7304168739       -2.0314233268        0.1752492595
 H          5.5472677842       -0.3784712348        0.5411524492
 H          5.0141222599        2.0340690769        0.5839991300
 H          2.6698905361        2.7826535570        0.2620719720
  32
 Etot=  -51.4236852198 g norm=  0.00041248
 C         -5.0393578463       -0.2415832564       -1.5732930366
 C         -4.1893257200        0.1896891754       -0.4155802596
 C         -4.9517252992        0.4497453836        0.8478780692
 C         -2.8753851958        0.3446743838       -0.5503004294
 C         -1.9151244707        0.8227756817        0.5057972543
 C         -0.5148329958        0.3135493487        0.2849669776
 C         -0.2523873660       -1.0123915021        0.1494044463
 O         -1.1838308626       -1.9705154012        0.2017057395
 C          1.1196001401       -1.5466443773       -0.0620736528
 O          1.3183643563       -2.7485774064       -0.1585238515
 C          2.1974067633       -0.5509203145       -0.1459310477
 C          3.5046989588       -0.9768503240       -0.3643148001
 C          4.5371770392       -0.0574137064       -0.4504904279
 C          4.2709382505        1.2961239704       -0.3173140176
 C          2.9727190146        1.7298861671       -0.0975750449
 C          1.9279302832        0.8170079258       -0.0108000874
 C          0.5532219291        1.3086381295        0.2217392064
 O          0.3237727115        2.5087800448        0.3549031091
 H         -5.8091691267        0.5038317930       -1.7661764851
 H         -5.5409016593       -1.1809941462       -1.3449339924
 H         -4.4462939333       -0.3719410866       -2.4742505049
 H         -5.4400811185        1.4215012688        0.7830326503
 H         -4.3126555104        0.4566738429        1.7254384170
 H         -5.7266813203       -0.3022321292        0.9806471697
 H         -2.4240203166        0.1705632446       -1.5194339082
 H         -2.2548285727        0.5327707374        1.5040337736
 H         -1.8653154682        1.9165274916        0.4892498273
 H         -2.0811042482       -1.5955887590        0.2784419272
 H          3.6863376890       -2.0363874250       -0.4642174632
 H          5.5459694177       -0.3979487789       -0.6214282158
 H          5.0715872729        2.0155466253       -0.3840280393
 H          2.7432933352        2.7795983667        0.0095816428
  32
 Etot=  -51.4239584323 g norm=  0.00040370
 C         -4.5030395694        0.3522059424       -1.8744800846
 C         -3.6211893945        0.7371279369       -0.7254096716
 C         -3.5644004543        2.2070804502       -0.4227324146
 C         -2.9646032065       -0.1813361815       -0.0254491779
 C         -2.0540638454        0.0903253345        1.1446309139
 C         -0.6271024096       -0.1895177289        0.7416524204
 C         -0.1123543257       -1.4463392834        0.7219119573
 O         -0.7823791528       -2.5460931019        1.0889583064
 C          1.2796704942       -1.7427541913        0.2915024383
 O          1.7115690662       -2.8862422570        0.3070370039
 C          2.0862588102       -0.5923724888       -0.1380983499
 C          3.3977666226       -0.7965479181       -0.5579715675
 C          4.1780352079        0.2727380996       -0.9660368075
 C          3.6523580737        1.5551030224       -0.9585184457
 C          2.3473363816        1.7681308457       -0.5424722658
 C          1.5546107490        0.7032367964       -0.1296716221
 C          0.1670230985        0.9598831899        0.3104447210
 O         -0.2916695097        2.0994985145        0.3170579581
 H         -4.1410733352        0.8169038462       -2.7909919066
 H         -5.5168855090        0.7089292582       -1.6992392767
 H         -4.5280708393       -0.7252064251       -2.0153454966
 H         -4.1007508679        2.4285235276        0.4993411542
 H         -4.0208516608        2.7775996637       -1.2267064720
 H         -2.5350611949        2.5410015742       -0.3019646328
 H         -3.0404025731       -1.2203607018       -0.3201327827
 H         -2.3461329492       -0.5259270222        1.9986618214
 H         -2.1232758955        1.1358832865        1.4395145568
 H         -1.6776661777       -2.3386815823        1.4070721261
 H          3.7837378655       -1.8049247038       -0.5545457122
 H          5.1931863924        0.1040184480       -1.2883211447
 H          4.2563304334        2.3904242819       -1.2754701019
 H          1.9189266017        2.7592372511       -0.5287485591
  32
 Etot=  -51.4237341076 g norm=  0.00047065
 C         -5.1567212370       -0.4574697929       -1.2045196203
 C         -4.2232223259        0.1859090537       -0.2267196443
 C         -4.8644888916        0.8189551112        0.9746567132
 C         -2.9074175626        0.1993896268       -0.4200615247
 C         -1.9203669173        0.8615963067        0.5037600088
 C         -0.5199804807        0.3307293953        0.3522843865
 C         -0.2472056789       -0.9970568595        0.4422804429
 O         -1.1706293073       -1.9381846544        0.6681789493
 C          1.1264879236       -1.5509226548        0.3090349577
 O          1.3312417518       -2.7526713301        0.3963173687
 C          2.1991023935       -0.5744605163        0.0719179629
 C          3.5114894818       -1.0203915069       -0.0577372813
 C          4.5398975607       -0.1194654994       -0.2804891354
 C          4.2639625108        1.2352448064       -0.3766876340
 C          2.9600998025        1.6888101210       -0.2500890423
 C          1.9196845139        0.7947286403       -0.0252188332
 C          0.5393598702        1.3073124484        0.1079863189
 O          0.2988687680        2.5094529054        0.0195207536
 H         -4.6153021414       -0.9092921194       -2.0314077909
 H         -5.8462734104        0.2853683484       -1.6030182865
 H         -5.7484954709       -1.2253293304       -0.7081365750
 H         -4.5381529232        0.3342243708        1.8940655324
 H         -5.9460496714        0.7436964662        0.9153517288
 H         -4.5918112528        1.8708404101        1.0416103445
 H         -2.4899322861       -0.2352371058       -1.3188228030
 H         -2.2436469250        0.7504994011        1.5434410785
 H         -1.8822617738        1.9364234517        0.2960025839
 H         -2.0690799265       -1.5589237715        0.6903003302
 H          3.7006358636       -2.0804680968        0.0209646322
 H          5.5531585947       -0.4752365586       -0.3780409603
 H          5.0613555517        1.9401662536       -0.5506088005
 H          2.7230014473        2.7398383167       -0.3219939089
  32
 Etot=  -51.4237125007 g norm=  0.00032139
 C         -5.1183672131       -0.7552638494        1.0255783707
 C         -4.1997884244        0.0334284224        0.1412322253
 C         -4.8637364837        0.6395826079       -1.0582480525
 C         -2.9142184348        0.1862851488        0.4498729814
 C         -1.9010235612        0.9997704711       -0.3065371398
 C         -0.5099391562        0.4244435614       -0.2373162521
 C         -0.2613853602       -0.8838594424       -0.5065415564
 O         -1.2023514841       -1.7720792778       -0.8445375849
 C          1.1045115744       -1.4714395243       -0.4651191914
 O          1.2869420980       -2.6555042179       -0.7066021935
 C          2.1980166167       -0.5489675879       -0.1283628819
 C          3.5056621491       -1.0251370793       -0.0900676412
 C          4.5532688357       -0.1744119928        0.2222087539
 C          4.3015067211        1.1596412926        0.5006661397
 C          3.0024855766        1.6425925071        0.4673783950
 C          1.9430225266        0.7992150299        0.1532913283
 C          0.5684669255        1.3424846018        0.1227160242
 O          0.3478946367        2.5224735815        0.3870455919
 H         -5.9480390126       -0.1288214753        1.3491907825
 H         -4.6004162578       -1.1300524292        1.9041921752
 H         -5.5372010840       -1.5991322846        0.4788802963
 H         -5.3310150431        1.5830675234       -0.7777785534
 H         -5.6436768435       -0.0207299274       -1.4301130504
 H         -4.1632386716        0.8426297138       -1.8631600336
 H         -2.5378595450       -0.2571795449        1.3636763620
 H         -1.8506016643        2.0087863622        0.1162013975
 H         -2.1918434133        1.1094126441       -1.3547953405
 H         -2.0960632996       -1.3799109174       -0.7873849072
 H          3.6756278627       -2.0684101929       -0.3099809248
 H          5.5626494544       -0.5531216477        0.2475636826
 H          5.1141182881        1.8256350979        0.7438052142
 H          2.7840040882        2.6782020981        0.6811771036
  32
 Etot=  -51.4236979854 g norm=  0.00026674
 C         -5.0272434349       -0.4344844671        1.4639990207
 C         -4.1617101973        0.0706096366        0.3479655762
 C         -4.8711162598        0.2057786271       -0.9651305651
 C         -2.8868647936        0.3865529110        0.5626706180
 C         -1.9103325291        0.9560910280       -0.4289406817
 C         -0.5185441481        0.4057214365       -0.2480502108
 C         -0.2844831604       -0.9310980377       -0.1872047045
 O         -1.2401080632       -1.8624131259       -0.2742478159
 C          1.0784319515       -1.5060300054       -0.0307584828
 O          1.2513222692       -2.7154350603       -0.0058838862
 C          2.1795989798       -0.5400444565        0.0886530550
 C          3.4804163136       -1.0055786293        0.2596809127
 C          4.5343580882       -0.1147938541        0.3802350454
 C          4.2960371166        1.2495664148        0.3296784166
 C          3.0044837108        1.7226937097        0.1573277831
 C          1.9384676986        0.8388531004        0.0364352734
 C          0.5715393770        1.3725913264       -0.1436179503
 O          0.3663987654        2.5830207507       -0.2015016612
 H         -5.8923225007        0.2152406288        1.5869482644
 H         -4.4826149970       -0.4722068210        2.4034651802
 H         -5.3960395449       -1.4327762632        1.2330700533
 H         -4.1879719431        0.2915223226       -1.8046194141
 H         -5.4958076677        1.0983622759       -0.9489623001
 H         -5.5225861669       -0.6504238866       -1.1276206237
 H         -2.4842843469        0.2808862880        1.5627992302
 H         -1.8449585241        2.0412755912       -0.2980686042
 H         -2.2390720019        0.7750901761       -1.4552636290
 H         -2.1288130211       -1.4549662183       -0.2889677798
 H          3.6397354252       -2.0727534654        0.2967752466
 H          5.5380453776       -0.4860846215        0.5131646379
 H          5.1135685178        1.9466071436        0.4238460544
 H          2.7969021347        2.7814530489        0.1142860753
  32
 Etot=  -51.4249851925 g norm=  0.00023374
 C         -4.7067567355       -0.6108045290        1.1287583326
 C         -3.4644245867        0.0552638803        0.6221272393
 C         -2.4889708590        0.4676435944        1.6826849073
 C         -3.2543796590        0.2354367431       -0.6794022783
 C         -2.0516598170        0.9096654984       -1.2882052328
 C         -0.7232690486        0.3546771635       -0.8355730035
 C         -0.4720804989       -0.9798556251       -0.8032040660
 O         -1.3567996074       -1.9200198280       -1.1514959712
 C          0.8348192184       -1.5456691192       -0.3759095314
 O          1.0166386136       -2.7539880610       -0.3448001400
 C          1.8746280338       -0.5744678087       -0.0075486318
 C          3.1313556644       -1.0322412639        0.3781444326
 C          4.1271853258       -0.1355153356        0.7293134500
 C          3.8729991938        1.2265663438        0.7008275319
 C          2.6237583869        1.6918484994        0.3202902193
 C          1.6176392991        0.8019177239       -0.0378559519
 C          0.2946350066        1.3256134000       -0.4381095510
 O          0.0644549525        2.5333739007       -0.4305246442
 H         -5.3465325017       -0.9352069386        0.3129293508
 H         -5.2677618902        0.0781116479        1.7583371080
 H         -4.4434367947       -1.4744648128        1.7375003515
 H         -1.8309315461       -0.3662705627        1.9321170929
 H         -3.0179836745        0.7562551364        2.5878146152
 H         -1.8700878773        1.3006088756        1.3583847684
 H         -4.0213216578       -0.0703754054       -1.3784376825
 H         -2.0510378674        1.9760904781       -1.0398345949
 H         -2.1101096627        0.8371838810       -2.3774861896
 H         -2.2263054168       -1.5279596213       -1.3616005251
 H          3.3036648422       -2.0979491691        0.3945140349
 H          5.0981165857       -0.5004109362        1.0242321649
 H          4.6450028060        1.9281900006        0.9741152169
 H          2.4046780193        2.7487971263        0.2918214362
  32
 Etot=  -51.4239689528 g norm=  0.00026716
 C         -4.3971062602        0.9913821931        1.9177070050
 C         -3.5815687232        0.9700237032        0.6603132105
 C         -3.5432504452        2.2634853725       -0.1015126355
 C         -2.9661435093       -0.1368138161        0.2593052547
 C         -2.1242537477       -0.2743130477       -0.9834559363
 C         -0.6728192861       -0.4110255019       -0.5935325337
 C         -0.1410990310       -1.5916987226       -0.1831670128
 O         -0.8185137261       -2.7446269174       -0.1150746340
 C          1.2792091153       -1.7380416880        0.2320358119
 O          1.7257756299       -2.8248343807        0.5698572121
 C          2.0936338844       -0.5155236845        0.2038285595
 C          3.4305209523       -0.5764023934        0.5873010792
 C          4.2178740121        0.5630162350        0.5690348369
 C          3.6740926357        1.7731733828        0.1681474537
 C          2.3440822670        1.8434904782       -0.2161059868
 C          1.5440145100        0.7066456447       -0.2034479396
 C          0.1305737836        0.8100249066       -0.6232326630
 O         -0.3413344297        1.8838110198       -0.9884419574
 H         -5.4167338466        1.3011069251        1.6935177741
 H         -3.9779629893        1.7118081957        2.6191756680
 H         -4.4223716280        0.0148542420        2.3940599549
 H         -3.9351864169        3.0731195747        0.5074096396
 H         -4.1493020939        2.1923564814       -1.0039713189
 H         -2.5260304591        2.5139084813       -0.3976879049
 H         -3.0266853337       -1.0236130925        0.8768598861
 H         -2.2245747215        0.6135422560       -1.6051519269
 H         -2.4529686549       -1.1387245968       -1.5660446697
 H         -1.7353401887       -2.6463321812       -0.4245518898
 H          3.8303579971       -1.5309246765        0.8952076643
 H          5.2525547106        0.5049188805        0.8670441675
 H          4.2836463883        2.6627271025        0.1523203136
 H          1.9015300485        2.7761128247       -0.5329693664
  32
 Etot=  -51.4237165252 g norm=  0.00050095
 C         -5.0480155280       -0.4612902671        1.4724043518
 C         -4.1639663606        0.0542113152        0.3758971791
 C         -4.8500061982        0.1954448741       -0.9488974817
 C         -2.8932989664        0.3704235065        0.6154172066
 C         -1.9010344548        0.9478718641       -0.3550689527
 C         -0.5116692712        0.3936244788       -0.1672386788
 C         -0.2804955476       -0.9425864306       -0.0845066206
 O         -1.2372967573       -1.8740656086       -0.1543674289
 C          1.0809497946       -1.5178138903        0.0831221356
 O          1.2481444974       -2.7262722608        0.1555013356
 C          2.1884941391       -0.5541642593        0.1511170115
 C          3.4914403625       -1.0213090523        0.2997661096
 C          4.5518745480       -0.1326827757        0.3681208243
 C          4.3176681475        1.2310078507        0.2892888489
 C          3.0236336678        1.7057937707        0.1415403368
 C          1.9513053121        0.8240334037        0.0707742185
 C          0.5821284761        1.3589993109       -0.0874911505
 O          0.3783251204        2.5695476082       -0.1506186502
 H         -5.4088882571       -1.4595087228        1.2285639823
 H         -5.9176045266        0.1845306167        1.5826906524
 H         -4.5209321998       -0.5024923118        2.4216860622
 H         -5.4823143886        1.0824782421       -0.9368735560
 H         -5.4911459938       -0.6643036649       -1.1315140359
 H         -4.1523109491        0.2939043179       -1.7746100881
 H         -2.5091706464        0.2603822807        1.6225013765
 H         -1.8347239366        2.0311786331       -0.2102041648
 H         -2.2166028600        0.7817614597       -1.3880896541
 H         -2.1258330378       -1.4651427910       -0.1754200284
 H          3.6474351480       -2.0879557810        0.3598057403
 H          5.5573852122       -0.5050492237        0.4825984495
 H          5.1401491821        1.9265259708        0.3424016053
 H          2.8190099089        2.7641569185        0.0783021102
  32
 Etot=  -51.4237225686 g norm=  0.00045750
 C         -4.9724204326       -0.6761196991        1.4028967394
 C         -4.1163595808       -0.0974510353        0.3157662649
 C         -4.8304500958        0.0988832564       -0.9869504698
 C         -2.8453578718        0.2230746604        0.5457771943
 C         -1.8801224409        0.8603402191       -0.4150418219
 C         -0.4728730564        0.3446377966       -0.2531770712
 C         -0.1979314046       -0.9856706889       -0.2326741429
 O         -1.1231336304       -1.9441360787       -0.3482069151
 C          1.1818791944       -1.5230118811       -0.0912074976
 O          1.3904400739       -2.7271876566       -0.0891116351
 C          2.2551794657       -0.5276566660        0.0416339111
 C          3.5708649283       -0.9582346943        0.1886815555
 C          4.5994982002       -0.0395529212        0.3181645653
 C          4.3207139089        1.3178993166        0.3006738727
 C          3.0138223238        1.7563805078        0.1539875040
 C          1.9729020855        0.8442330405        0.0240755390
 C          0.5885713507        1.3407246061       -0.1271708154
 O          0.3460739005        2.5456407206       -0.1449239845
 H         -5.3415290207       -1.6583417015        1.1115772552
 H         -5.8374686398       -0.0373069177        1.5730058896
 H         -4.4212413049       -0.7718065580        2.3342652753
 H         -5.4913716592        0.9616159896       -0.9108671323
 H         -5.4466986924       -0.7696641515       -1.2102654848
 H         -4.1514855477        0.2703298680       -1.8164282713
 H         -2.4402007486        0.0695215623        1.5387390237
 H         -1.8466503920        1.9403145412       -0.2375466896
 H         -2.1996740241        0.7159145208       -1.4501165068
 H         -2.0248035095       -1.5663353367       -0.3583539054
 H          3.7620359469       -2.0207641810        0.1990562363
 H          5.6150540893       -0.3836408732        0.4324419955
 H          5.1183966086        2.0366844065        0.4009184523
 H          2.7746333803        2.8092418403        0.1376503089
  32
 Etot=  -51.4236884949 g norm=  0.00028811
 C         -5.1185214963       -0.2522100451       -1.4597767256
 C         -4.2113276740        0.3137969852       -0.4120321125
 C         -4.8770372977        1.0581417757        0.7083363577
 C         -2.8919801482        0.1637989133       -0.4688416915
 C         -1.9403626817        0.7309021970        0.5530626548
 C         -0.5285011397        0.2445500671        0.3720238626
 C         -0.2194473495       -1.0777204893        0.4130377052
 O         -1.1116288448       -2.0513416258        0.6258058456
 C          1.1649386524       -1.5899251493        0.2310691245
 O          1.4044983387       -2.7871283859        0.2850097251
 C          2.2035615606       -0.5792328395       -0.0129780445
 C          3.5211382876       -0.9868929819       -0.2025311656
 C          4.5179450391       -0.0533790758       -0.4340659783
 C          4.2053787067        1.2962017478       -0.4762475925
 C          2.8964196412        1.7118787285       -0.2878965726
 C          1.8870512576        0.7845931326       -0.0562589427
 C          0.4999810803        1.2567642256        0.1412126042
 O          0.2292790880        2.4553954194        0.1134693174
 H         -4.5583574590       -0.7949762227       -2.2166679896
 H         -5.6743013687        0.5496435988       -1.9441884262
 H         -5.8407505001       -0.9275359904       -1.0028404747
 H         -4.7320756328        0.5420537826        1.6566057652
 H         -5.9437742645        1.1508262920        0.5287549947
 H         -4.4508760071        2.0548453106        0.8094445076
 H         -2.4412943549       -0.3521249518       -1.3060496675
 H         -2.2902957592        0.4932935855        1.5634948224
 H         -1.9213511319        1.8231310119        0.4746010541
 H         -2.0170316180       -1.7025040848        0.7090936466
 H          3.7387807057       -2.0436896342       -0.1641656375
 H          5.5353627911       -0.3797630694       -0.5794042019
 H          4.9784990684        2.0265096414       -0.6552025485
 H          2.6312780791        2.7582277601       -0.3168069372
  32
 Etot=  -51.4237287888 g norm=  0.00032886
 C         -5.0784137701       -0.5654782000       -1.0702925312
 C         -4.1600257650       -0.0016579339       -0.0274575547
 C         -4.7978887990        0.1913022629        1.3152223976
 C         -2.9014246238        0.3141343201       -0.3241328306
 C         -1.8845782399        0.9418511263        0.5878740127
 C         -0.4974728790        0.3876435473        0.3837260932
 C         -0.2579192362       -0.9495442264        0.3672357572
 O         -1.2038730091       -1.8820175916        0.5216062297
 C          1.1018762750       -1.5241865430        0.1846039136
 O          1.2766589083       -2.7336881252        0.1727361283
 C          2.1983823745       -0.5584101517        0.0263146920
 C          3.4997890493       -1.0241947957       -0.1393158385
 C          4.5497508650       -0.1335577461       -0.2917044383
 C          4.3066432806        1.2308055838       -0.2807594364
 C          3.0140763179        1.7042657528       -0.1170255481
 C          1.9522887346        0.8205253699        0.0381201222
 C          0.5844711739        1.3542821293        0.2113170764
 O          0.3722691840        2.5650099473        0.2112644622
 H         -5.4283372960       -1.5527714920       -0.7723608640
 H         -4.5832779098       -0.6462318606       -2.0340623073
 H         -5.9526894876        0.0743345911       -1.1785641272
 H         -5.3835566834        1.1097985196        1.3106329786
 H         -4.0703080713        0.2640162669        2.1178400224
 H         -5.4751199988       -0.6321770495        1.5297240105
 H         -2.5496537803        0.1637570821       -1.3377107948
 H         -2.1689810490        0.8237990766        1.6364411897
 H         -1.8307162748        2.0173619645        0.3895310904
 H         -2.0946449472       -1.4791048948        0.5515521499
 H          3.6630608305       -2.0914350101       -0.1452247775
 H          5.5540808577       -0.5049097849       -0.4187477688
 H          5.1209771944        1.9278289394       -0.3992810820
 H          2.8024583959        2.7630999863       -0.1057031834
  32
 Etot=  -51.4239676559 g norm=  0.00040528
 C         -4.5252223845        0.6793750430        1.7874986010
 C         -3.6851039554        0.7772617676        0.5503134715
 C         -3.6883481707        2.1188660048       -0.1246458221
 C         -3.0119106400       -0.2721007514        0.0918077582
 C         -2.1365695905       -0.2873807074       -1.1352063100
 C         -0.6944720123       -0.4187990919       -0.7118654784
 C         -0.1365507813       -1.6169955747       -0.3990444466
 O         -0.7744948009       -2.7922663901       -0.4697768462
 C          1.2722809393       -1.7584877669        0.0545188449
 O          1.7460841687       -2.8589584441        0.2972521056
 C          2.0416298803       -0.5134995575        0.1837033610
 C          3.3627127853       -0.5690724505        0.6191527267
 C          4.1081541785        0.5912994816        0.7479925105
 C          3.5382474188        1.8169952127        0.4420048909
 C          2.2236485955        1.8821974452        0.0070121085
 C          1.4651997513        0.7247251317       -0.1260202199
 C          0.0661625253        0.8241426710       -0.5925552847
 O         -0.4293973643        1.9128906798       -0.8722494461
 H         -5.5560056173        0.9451433661        1.5581919143
 H         -4.1612403504        1.3789779511        2.5388538306
 H         -4.5047389172       -0.3235935780        2.2054782752
 H         -4.2424664728        2.0738852083       -1.0616355570
 H         -2.6735864938        2.4442893767       -0.3485955632
 H         -4.1575033542        2.8631614192        0.5126834240
 H         -3.0435425801       -1.2006798280        0.6470316914
 H         -2.2443890291        0.6458222152       -1.6851243869
 H         -2.4263944692       -1.1092419778       -1.7948154844
 H         -1.6838406459       -2.6940007981       -0.8005016278
 H          3.7835023320       -1.5359601062        0.8515161255
 H          5.1306201044        0.5372414985        1.0864225601
 H          4.1151518224        2.7228272797        0.5405635173
 H          1.7611469095        2.8267740419       -0.2374458857
  32
 Etot=  -51.4237176696 g norm=  0.00052696
 C         -5.0893972219       -0.7504805428        1.1177166659
 C         -4.1922862881        0.0450074976        0.2166088788
 C         -4.8752913088        0.5962817916       -0.9978593889
 C         -2.9125421881        0.2398709891        0.5260827407
 C         -1.9071411609        1.0542692888       -0.2397700816
 C         -0.5209796806        0.4634899500       -0.1942793355
 C         -0.2914474026       -0.8440579451       -0.4829524569
 O         -1.2464399468       -1.7158535577       -0.8232983208
 C          1.0672946188       -1.4487160326       -0.4633576667
 O          1.2335998675       -2.6294420722       -0.7312196256
 C          2.1738466371       -0.5473347904       -0.1127569418
 C          3.4741330371       -1.0435718035       -0.0808627920
 C          4.5340151239       -0.2134087620        0.2451761468
 C          4.3018548376        1.1200884984        0.5428995304
 C          3.0103460329        1.6231116188        0.5150748369
 C          1.9385892741        0.8001696208        0.1885930053
 C          0.5718115468        1.3635074044        0.1671048010
 O          0.3690841166        2.5443305928        0.4417207841
 H         -4.5592361589       -1.0980909538        2.0000500193
 H         -5.4903281926       -1.6130134539        0.5874121282
 H         -5.9327258486       -0.1392985855        1.4348637458
 H         -5.4837485948        1.4538926990       -0.7130936915
 H         -5.5392103216       -0.1520380540       -1.4257289702
 H         -4.1752426257        0.9221085703       -1.7609491178
 H         -2.5307077073       -0.1748253830        1.4512944005
 H         -1.8412272053        2.0577357929        0.1937839331
 H         -2.2111196982        1.1761080286       -1.2826151284
 H         -2.1347833502       -1.3138798045       -0.7496638869
 H          3.6286609253       -2.0858101016       -0.3165855274
 H          5.5374959808       -0.6075696020        0.2665169672
 H          5.1242796129        1.7698410152        0.7969488806
 H          2.8074317846        2.6587628049        0.7444480898
  32
 Etot=  -51.4249633737 g norm=  0.00032229
 C         -4.6221490793       -0.1183312794        1.4348155577
 C         -3.4147245478        0.3339576828        0.6725455814
 C         -2.4284312290        1.1360735447        1.4667371950
 C         -3.2416886155        0.0158998627       -0.6077936275
 C         -2.0695843433        0.4302285034       -1.4603344179
 C         -0.7237265984        0.0951957547       -0.8652820242
 C         -0.4487242965       -1.1326547262       -0.3535237615
 O         -1.3188850509       -2.1475745678       -0.3266471512
 C          0.8686480200       -1.4844156479        0.2389781275
 O          1.0729466533       -2.5972236890        0.7016342310
 C          1.8889203810       -0.4266320422        0.2290590362
 C          3.1492617736       -0.6882955678        0.7589281802
 C          4.1275059912        0.2925995415        0.7592730602
 C          3.8526970822        1.5437336238        0.2303379582
 C          2.5996553553        1.8143994099       -0.2974036583
 C          1.6101931171        0.8380392786       -0.3041769800
 C          0.2804768973        1.1571517297       -0.8651664352
 O          0.0330305011        2.2776920631       -1.3066726379
 H         -4.3149028823       -0.6809120695        2.3150816908
 H         -5.2680639293       -0.7429025822        0.8242118417
 H         -5.1921634277        0.7442831706        1.7765064246
 H         -1.7374666494        0.4719107762        1.9882431934
 H         -2.9449772663        1.7324372663        2.2151047000
 H         -1.8450761777        1.7995173334        0.8331031866
 H         -4.0153599316       -0.5446446581       -1.1154364139
 H         -2.0840796659        1.5125792385       -1.6246930927
 H         -2.1508555025       -0.0417055431       -2.4429286289
 H         -2.1956598576       -1.8706469103       -0.6552768998
 H          3.3385610061       -1.6706532588        1.1648843196
 H          5.1008416377        0.0793494164        1.1714764979
 H          4.6114119957        2.3101260185        0.2279865244
 H          2.3643139585        2.7827790946       -0.7133434907
  32
 Etot=  -51.4236780337 g norm=  0.00045691
 C         -5.1085018576       -0.2355967191       -1.4020628582
 C         -4.2013832311        0.3447780855       -0.3620053548
 C         -4.8667617216        1.1108845911        0.7439354604
 C         -2.8828650359        0.1866566377       -0.4128821762
 C         -1.9292456359        0.7650483291        0.6010116038
 C         -0.5199831229        0.2696722054        0.4243185804
 C         -0.2155112813       -1.0523227011        0.4948965948
 O         -1.1100090666       -2.0172461175        0.7362483071
 C          1.1657321693       -1.5739766737        0.3161329735
 O          1.4021635256       -2.7698923027        0.4014511084
 C          2.2049996046       -0.5741076528        0.0333134315
 C          3.5183178925       -0.9920022697       -0.1632190533
 C          4.5154828645       -0.0689608134       -0.4325974578
 C          4.2074499482        1.2802919272       -0.5059593710
 C          2.9027948230        1.7061658617       -0.3102166388
 C          1.8930784115        0.7894409032       -0.0409717508
 C          0.5106897723        1.2722402527        0.1628341958
 O          0.2451335084        2.4713504199        0.1145012968
 H         -5.6519501233        0.5610317467       -1.9082405806
 H         -5.8413062492       -0.8916695716       -0.9344544715
 H         -4.5503457376       -0.8018835334       -2.1428941905
 H         -4.4107521108        2.0929709759        0.8566743316
 H         -4.7615756692        0.5884735931        1.6941846662
 H         -5.9255680347        1.2385849376        0.5401805378
 H         -2.4334285328       -0.3467568296       -1.2398246854
 H         -2.2796095703        0.5438363032        1.6149019097
 H         -1.9053903013        1.8558051907        0.5058571135
 H         -2.0136470059       -1.6633522419        0.8158737461
 H          3.7327305589       -2.0482849182       -0.1001965690
 H          5.5293313922       -0.4034680719       -0.5843192451
 H          4.9805274098        2.0024715652       -0.7153102972
 H          2.6414286620        2.7525826744       -0.3620495461
  32
 Etot=  -51.4236744364 g norm=  0.00050581
 C         -5.0989642976       -0.1407154321       -1.5780405066
 C         -4.1984018847        0.3714027396       -0.4973040155
 C         -4.8712596301        1.0655897806        0.6507879935
 C         -2.8796754856        0.2146170546       -0.5489346517
 C         -1.9331522206        0.7277123175        0.5056263189
 C         -0.5206072436        0.2495905341        0.3081514412
 C         -0.2106509736       -1.0727836962        0.2781540213
 O         -1.1012505555       -2.0582474154        0.4362737541
 C          1.1739750832       -1.5736123442        0.0662935222
 O          1.4116560594       -2.7721060724        0.0423570300
 C          2.2140825111       -0.5507918141       -0.1113276347
 C          3.5326950075       -0.9464926846       -0.3183940008
 C          4.5303123966       -0.0008510474       -0.4898357691
 C          4.2175849958        1.3488611290       -0.4546297758
 C          2.9076632382        1.7526209813       -0.2477448066
 C          1.8975797559        0.8132191468       -0.0753983645
 C          0.5096350834        1.2730194911        0.1431731979
 O          0.2398597830        2.4713516250        0.1880545502
 H         -5.6396704936        0.6867150741       -2.0354244217
 H         -5.8341832552       -0.8257649323       -1.1582211537
 H         -4.5358771571       -0.6580277308       -2.3503151658
 H         -4.7865786106        0.4749601776        1.5623195374
 H         -5.9254050649        1.2204683010        0.4417087404
 H         -4.4058300359        2.0312256194        0.8401329800
 H         -2.4253766417       -0.2655840703       -1.4053074223
 H         -2.2901552982        0.4424562651        1.5008491402
 H         -1.9114917628        1.8224823332        0.4810915171
 H         -2.0066783551       -1.7166880710        0.5435415192
 H          3.7509593966       -2.0036107400       -0.3417767803
 H          5.5484660298       -0.3180834954       -0.6496758406
 H          4.9911451591        2.0884973360       -0.5872858548
 H          2.6419580612        2.7987756180       -0.2165916036
  32
 Etot=  -51.4239559379 g norm=  0.00030329
 C         -4.3913879878        1.0992633909        1.8374194679
 C         -3.5965816278        0.9825634978        0.5722220976
 C         -3.6067524166        2.1997172260       -0.3075466262
 C         -2.9552869787       -0.1390767405        0.2635299992
 C         -2.1270375069       -0.3652989148       -0.9753117562
 C         -0.6726903812       -0.4677221790       -0.5871762537
 C         -0.1251751934       -1.6191484103       -0.1188599985
 O         -0.7864396057       -2.7765795242        0.0087227280
 C          1.2970047210       -1.7251431739        0.3018008802
 O          1.7596745177       -2.7887222059        0.6880856571
 C          2.0927250803       -0.4928140155        0.2200030460
 C          3.4272957978       -0.5141250449        0.6154435656
 C          4.1973337166        0.6353974105        0.5478419019
 C          3.6386082457        1.8156465754        0.0835938621
 C          2.3107196647        1.8462395438       -0.3133696675
 C          1.5275655096        0.6993298482       -0.2500323545
 C          0.1149103510        0.7606382040       -0.6811186047
 O         -0.3698092106        1.8064120986       -1.1060410244
 H         -3.9887308483        1.9013543452        2.4548887912
 H         -4.3705034540        0.1749090242        2.4085969734
 H         -5.4259357074        1.3470216512        1.6046169706
 H         -4.2015338383        2.0191978821       -1.2022034004
 H         -2.5976612054        2.4625444921       -0.6208616866
 H         -4.0360346027        3.0460512200        0.2209644155
 H         -2.9798108579       -0.9683715232        0.9588320173
 H         -2.2365380449        0.4748599489       -1.6587098005
 H         -2.4600686539       -1.2703089841       -1.4893901962
 H         -1.7040850820       -2.7078262951       -0.3061587956
 H          3.8389396218       -1.4459503200        0.9732406286
 H          5.2299189270        0.6081681831        0.8573646402
 H          4.2341864551        2.7130780300        0.0297260169
 H          1.8567920193        2.7553029718       -0.6785785421
  32
 Etot=  -51.4237082729 g norm=  0.00030900
 C         -5.0321016244       -0.2935961870       -1.5209616201
 C         -4.1545542851        0.0620786933       -0.3577309424
 C         -4.8532307780        0.0387449856        0.9676953844
 C         -2.8773068449        0.3888692832       -0.5403109758
 C         -1.8913984634        0.8165242000        0.5111272357
 C         -0.4936680296        0.3235243292        0.2361965122
 C         -0.2400126184       -0.9759248539       -0.0686002414
 O         -1.1791132285       -1.9240617484       -0.1531136358
 C          1.1299348739       -1.4900296352       -0.3362926145
 O          1.3160945257       -2.6640702713       -0.6199425742
 C          2.2218343928       -0.5118105644       -0.2335685480
 C          3.5322499979       -0.9257735110       -0.4559429692
 C          4.5788494593       -0.0233346608       -0.3604790286
 C          4.3231588832        1.3012780458       -0.0430692733
 C          3.0211877622        1.7237512922        0.1764827117
 C          1.9625723447        0.8274368307        0.0846239714
 C          0.5840247702        1.3066416643        0.3210635113
 O          0.3596302426        2.4869281924        0.5807140385
 H         -4.4992973376       -0.2024609235       -2.4635051190
 H         -5.9012941509        0.3615588936       -1.5452550478
 H         -5.3937245701       -1.3161848742       -1.4210588386
 H         -5.4629996230        0.9355369378        1.0717236104
 H         -4.1630091005        0.0060169195        1.8049670099
 H         -5.5175451848       -0.8208347699        1.0256319265
 H         -2.4834458495        0.4106824132       -1.5493420139
 H         -2.2023968873        0.4786127253        1.5030579106
 H         -1.8427764054        1.9099130609        0.5466554655
 H         -2.0751765920       -1.5447371328       -0.0551546703
 H          3.7051319377       -1.9628446250       -0.7015028640
 H          5.5903403546       -0.3546249735       -0.5334432534
 H          5.1349719338        2.0070992640        0.0331508055
 H          2.7997942458        2.7514024966        0.4232519205
  32
 Etot=  -51.4239540143 g norm=  0.00047482
 C         -4.5771479302        0.2497023934       -1.7003573434
 C         -3.6710312422        0.6853189136       -0.5888104560
 C         -3.6142391769        2.1668710348       -0.3495679148
 C         -2.9944619406       -0.2007296574        0.1335972973
 C         -2.0605758800        0.1224472968        1.2717706226
 C         -0.6401549826       -0.1692800726        0.8544663623
 C         -0.1219133409       -1.4245955535        0.8769105952
 O         -0.7838998288       -2.5102678957        1.2963895164
 C          1.2657635565       -1.7340895841        0.4413745312
 O          1.7034428690       -2.8739253129        0.5020445314
 C          2.0611968003       -0.6001879702       -0.0486900233
 C          3.3670170921       -0.8176929000       -0.4794455333
 C          4.1374886072        0.2361930365       -0.9425255672
 C          3.6075702413        1.5162830117       -0.9795641387
 C          2.3079271131        1.7424043623       -0.5536188461
 C          1.5250195324        0.6931282129       -0.0857639869
 C          0.1431439410        0.9636656432        0.3641500241
 O         -0.3202790859        2.1008646913        0.3289745687
 H         -5.5880825656        0.6109250900       -1.5174251990
 H         -4.6015429709       -0.8327659274       -1.7946125686
 H         -4.2380484121        0.6754436402       -2.6439681300
 H         -4.0853849142        2.7013856948       -1.1695572151
 H         -2.5844183312        2.5087936527       -0.2595803711
 H         -4.1372278278        2.4252485856        0.5705890577
 H         -3.0711557840       -1.2510758976       -0.1171365359
 H         -2.3324445759       -0.4586457815        2.1567955725
 H         -2.1281662090        1.1792008205        1.5240909712
 H         -1.6763747954       -2.2922524428        1.6155737442
 H          3.7568206357       -1.8238035879       -0.4396305885
 H          5.1482285426        0.0572735619       -1.2729090093
 H          4.2036986039        2.3395508926       -1.3400528040
 H          1.8763525475        2.7320178450       -0.5745065667
  32
 Etot=  -51.4236886495 g norm=  0.00021218
 C         -5.1101123095       -0.1768745166        1.4195376115
 C         -4.2034302262        0.3491449026        0.3508250657
 C         -4.8674867927        1.0680080551       -0.7870217923
 C         -2.8855439234        0.1861301329        0.4039362092
 C         -1.9352031903        0.7151460765       -0.6393596182
 C         -0.5232292303        0.2350889884       -0.4432769715
 C         -0.2115204366       -1.0871589427       -0.4481319311
 O         -1.1007778357       -2.0682988999       -0.6373542027
 C          1.1732037543       -1.5916818815       -0.2471347312
 O          1.4144395759       -2.7896764078       -0.2643612623
 C          2.2095615465       -0.5727943808       -0.0289287392
 C          3.5274923987       -0.9724225965        0.1746846156
 C          4.5219964556       -0.0309311709        0.3828418331
 C          4.2067686088        1.3186151494        0.3880726541
 C          2.8974056541        1.7262966526        0.1854379194
 C          1.8904285559        0.7910431203       -0.0235740631
 C          0.5031354193        1.2549425728       -0.2374947841
 O          0.2305907031        2.4533872028       -0.2444329979
 H         -4.5501444887       -0.6922163832        2.1951562480
 H         -5.8337733029       -0.8673911957        0.9890474010
 H         -5.6639091558        0.6430127947        1.8741532096
 H         -4.7254332891        0.5280500559       -1.7224607768
 H         -4.4372075983        2.0604441581       -0.9130106853
 H         -5.9338696681        1.1692246036       -0.6087140470
 H         -2.4352129176       -0.3120404575        1.2520159417
 H         -1.9155283474        1.8093775697       -0.5985215352
 H         -2.2876907779        0.4439319003       -1.6403559435
 H         -2.0062916852       -1.7244276942       -0.7362757358
 H          3.7473979786       -2.0293713038        0.1660407183
 H          5.5394220737       -0.3512210725        0.5406864150
 H          4.9777091815        2.0550946836        0.5503091460
 H          2.6300029454        2.7723949735        0.1851339051
  32
 Etot=  -51.4236938864 g norm=  0.00056676
 C         -5.0202958577       -0.6622573887        1.4450282088
 C         -4.1514356665       -0.0345364737        0.3956996518
 C         -4.8592245175        0.2474220972       -0.8943851387
 C         -2.8756668487        0.2500039361        0.6466716155
 C         -1.8949639340        0.9232807886       -0.2731045759
 C         -0.4979529957        0.3724209805       -0.1410516677
 C         -0.2485689132       -0.9621795596       -0.1914979307
 O         -1.1933812154       -1.8946881588       -0.3514187940
 C          1.1215446461       -1.5322775665       -0.0901554947
 O          1.3070187781       -2.7382709552       -0.1597187139
 C          2.2142611721       -0.5662804659        0.0905879630
 C          3.5223745389       -1.0287341561        0.2047281855
 C          4.5690744684       -0.1378180135        0.3767951009
 C          4.3161809159        1.2235688237        0.4348991564
 C          3.0169613608        1.6937251315        0.3217719668
 C          1.9581082055        0.8096576076        0.1496042360
 C          0.5827096851        1.3397488334        0.0349961284
 O          0.3632219719        2.5480970814        0.0867585138
 H         -4.4740131285       -0.8207969782        2.3707829382
 H         -5.4034113294       -1.6198588734        1.0954252931
 H         -5.8763364372       -0.0213796600        1.6499266855
 H         -5.5409553506        1.0859091412       -0.7567800529
 H         -5.4538136419       -0.6146334100       -1.1905183143
 H         -4.1784079735        0.4985830987       -1.7014270129
 H         -2.4776523997        0.0343924349        1.6310412441
 H         -1.8411448240        1.9903900156       -0.0333975456
 H         -2.2134654120        0.8441940080       -1.3155974494
 H         -2.0868404010       -1.4972661913       -0.3337640362
 H          3.6933185377       -2.0936677771        0.1560296002
 H          5.5785419613       -0.5066379610        0.4647229349
 H          5.1280240237        1.9208502508        0.5679741274
 H          2.7977591447        2.7501976804        0.3646079989
  32
 Etot=  -51.4237618595 g norm=  0.00024197
 C         -5.1548467441       -0.3494279098        1.3123960561
 C         -4.2266323024        0.2040416554        0.2764147280
 C         -4.8741304889        0.7354974229       -0.9698018002
 C         -2.9093012682        0.2276691087        0.4571388561
 C         -1.9282897797        0.8032276590       -0.5292253933
 C         -0.5242182327        0.2996475322       -0.3279114875
 C         -0.2418158311       -1.0286803859       -0.2886804507
 O         -1.1572102185       -1.9942205817       -0.4261897514
 C          1.1348676832       -1.5569502474       -0.0954737234
 O          1.3486451110       -2.7600169309       -0.0680809000
 C          2.1988528909       -0.5543375670        0.0559270308
 C          3.5125524000       -0.9759877890        0.2417705047
 C          4.5325552399       -0.0502433672        0.3882451057
 C          4.2469593271        1.3053870975        0.3499462518
 C          2.9420319255        1.7349689185        0.1644026990
 C          1.9098314886        0.8157242468        0.0163661202
 C          0.5277577584        1.3028693235       -0.1796153624
 O          0.2800216208        2.5061957068       -0.2186931676
 H         -5.7552961441       -1.1521906467        0.8868905188
 H         -5.8362663449        0.4285141940        1.6539040775
 H         -4.6081448624       -0.7340641603        2.1691395173
 H         -4.5679599229        0.1624124869       -1.8443203070
 H         -4.5852154483        1.7719033259       -1.1364676753
 H         -5.9558476796        0.6843716639       -0.8905136513
 H         -2.4859946497       -0.1309182761        1.3861448979
 H         -1.8979858290        1.8935827671       -0.4286503777
 H         -2.2525410880        0.5885725045       -1.5521955731
 H         -2.0584707751       -1.6268667387       -0.4908169065
 H          3.7091370231       -2.0372705756        0.2685793930
 H          5.5465695084       -0.3873361814        0.5329556408
 H          5.0378727209        2.0296161234        0.4639482677
 H          2.6975647902        2.7862399537        0.1316037127
  32
 Etot=  -51.4237228421 g norm=  0.00060760
 C         -5.0055856483       -0.6176799250        1.4169623494
 C         -4.1332250500       -0.0585466706        0.3325771089
 C         -4.8293106060        0.1210198251       -0.9821751626
 C         -2.8637416622        0.2601160486        0.5738979008
 C         -1.8847225313        0.8810274797       -0.3831448192
 C         -0.4836083014        0.3521802728       -0.2104483459
 C         -0.2222742358       -0.9801045834       -0.1603380382
 O         -1.1567578711       -1.9319163249       -0.2538757054
 C          1.1520072734       -1.5282100712       -0.0053090047
 O          1.3467191906       -2.7339961881        0.0340904049
 C          2.2369136584       -0.5417301016        0.0935063570
 C          3.5492517119       -0.9824721922        0.2403066635
 C          4.5882606212       -0.0717256683        0.3395998683
 C          4.3231256393        1.2878487383        0.2937334634
 C          3.0196523166        1.7363784054        0.1470201289
 C          1.9686641151        0.8322683106        0.0454428755
 C          0.5887353141        1.3395553123       -0.1100350066
 O          0.3589297237        2.5462930830       -0.1546031178
 H         -5.3609054159       -1.6098128160        1.1423803167
 H         -5.8789589588        0.0175542951        1.5548021799
 H         -4.4717153770       -0.6866012851        2.3607000896
 H         -5.4725248183        0.9993174834       -0.9344294701
 H         -5.4611953783       -0.7397728931       -1.1914962678
 H         -4.1378312552        0.2577406047       -1.8079546074
 H         -2.4717379933        0.1196051779        1.5741085817
 H         -1.8407806559        1.9616601669       -0.2114887089
 H         -2.1988256611        0.7355917449       -1.4197343211
 H         -2.0549297894       -1.5452793034       -0.2712886687
 H          3.7296816335       -2.0464032093        0.2746351832
 H          5.6010992246       -0.4237363352        0.4537558371
 H          5.1287828550        2.0005556911        0.3714548055
 H          2.7911108860        2.7910566213        0.1079251881
  32
 Etot=  -51.4237730740 g norm=  0.00044288
 C         -5.1297613456       -0.4023553742        1.4051118426
 C         -4.2094435703        0.1242350531        0.3482457544
 C         -4.8645061103        0.5999092028       -0.9164448889
 C         -2.8925767896        0.1738976521        0.5282178035
 C         -1.9187707496        0.7233039155       -0.4796476732
 C         -0.5085662758        0.2440326241       -0.2622318014
 C         -0.2121890545       -1.0778190126       -0.1591424653
 O         -1.1181071539       -2.0583927944       -0.2429802536
 C          1.1708164927       -1.5819201857        0.0524675027
 O          1.3962157158       -2.7796651731        0.1452542669
 C          2.2265225580       -0.5629940771        0.1381992723
 C          3.5464298976       -0.9622669131        0.3292611019
 C          4.5590073798       -0.0208476109        0.4140509809
 C          4.2596707946        1.3282103460        0.3084479021
 C          2.9483297878        1.7355444000        0.1180201914
 C          1.9234495602        0.8003911061        0.0311749661
 C          0.5343724643        1.2637015978       -0.1730147540
 O          0.2735389669        2.4612528386       -0.2663713806
 H         -5.7132946223       -1.2342983746        1.0125910184
 H         -5.8273820390        0.3761813786        1.7113081805
 H         -4.5783118074       -0.7398142350        2.2789178272
 H         -4.6231047200        1.6459349601       -1.0981655141
 H         -5.9437129955        0.4987454660       -0.8505500820
 H         -4.5187078497        0.0284284729       -1.7768829865
 H         -2.4651633874       -0.1406271950        1.4712973816
 H         -1.9012817812        1.8169579985       -0.4209544536
 H         -2.2406248081        0.4661858165       -1.4937883935
 H         -2.0237071045       -1.7033803649       -0.3184282432
 H          3.7536272817       -2.0188834705        0.4088734318
 H          5.5781137271       -0.3409066450        0.5617029165
 H          5.0448002913        2.0646393758        0.3736817477
 H          2.6931398897        2.7814423352        0.0347974638
  32
 Etot=  -51.4236324666 g norm=  0.00042614
 C         -5.0463139038       -0.5046798416        1.4485248054
 C         -4.1950816126        0.1348265465        0.3921504264
 C         -4.9601723857        0.6361494636       -0.7944276040
 C         -2.8794690723        0.2479605422        0.5487936910
 C         -1.9134154959        0.9068626742       -0.3998850006
 C         -0.5152103991        0.3630202670       -0.2662629063
 C         -0.2539841004       -0.9652041454       -0.3806065753
 O         -1.1854155260       -1.8943092859       -0.6203209176
 C          1.1164765273       -1.5315457425       -0.2639406667
 O          1.3152777235       -2.7299933246       -0.3969394248
 C          2.1936352753       -0.5707046878        0.0137341102
 C          3.4998586268       -1.0314218756        0.1543301569
 C          4.5320530775       -0.1453632054        0.4159144199
 C          4.2665812380        1.2094481201        0.5381780255
 C          2.9692075638        1.6777463422        0.3995337423
 C          1.9248096201        0.7983366351        0.1381017802
 C          0.5512056419        1.3261155368       -0.0027102808
 O          0.3212301163        2.5290380637        0.1013247533
 H         -4.4500811030       -0.8259472011        2.2981961286
 H         -5.5696769785       -1.3685226249        1.0414287776
 H         -5.7985655506        0.2011559459        1.7970413762
 H         -5.5235370002        1.5247754510       -0.5122311148
 H         -5.6747427472       -0.1153969424       -1.1246983383
 H         -4.3147374181        0.8999420100       -1.6260878722
 H         -2.4292706225       -0.1125259713        1.4656545315
 H         -1.8621374349        1.9797803092       -0.1868606834
 H         -2.2470884738        0.8003811580       -1.4357954038
 H         -2.0811721674       -1.5086679422       -0.6366731071
 H          3.6807805933       -2.0911127057        0.0543541952
 H          5.5400686051       -0.5128879141        0.5236140340
 H          5.0671161741        1.9029141281        0.7413337225
 H          2.7402376039        2.7290668456        0.4909506351
  32
 Etot=  -51.4236795831 g norm=  0.00027060
 C         -5.0949657343        0.0117772218        1.5350701016
 C         -4.2025069618        0.3650406734        0.3862137886
 C         -4.8823308033        0.8895168313       -0.8448236597
 C         -2.8827717163        0.2224745090        0.4519043204
 C         -1.9452766048        0.5838106829       -0.6714149425
 C         -0.5271798484        0.1573069852       -0.4079949658
 C         -0.2003250756       -1.1442295507       -0.1966065172
 O         -1.0781569187       -2.1533730147       -0.2167486143
 C          1.1910694276       -1.5934716656        0.0772115980
 O          1.4475877807       -2.7762911573        0.2468143637
 C          2.2145103153       -0.5400329986        0.1304678531
 C          3.5356966457       -0.8846555517        0.4025070264
 C          4.5178361836        0.0907122285        0.4589126258
 C          4.1870416017        1.4188999183        0.2415546418
 C          2.8743404957        1.7717045214       -0.0306152567
 C          1.8795084357        0.8024835007       -0.0877837349
 C          0.4879629886        1.2083128399       -0.3784183915
 O          0.2025793234        2.3853089074       -0.5879903571
 H         -5.8201924783       -0.7400503429        1.2265777736
 H         -5.6473748673        0.8917100747        1.8620689651
 H         -4.5238445065       -0.3741296129        2.3753196067
 H         -4.7284532801        0.2187616901       -1.6892326189
 H         -4.4731138087        1.8605849247       -1.1197491878
 H         -5.9502995797        0.9948276473       -0.6801604398
 H         -2.4209226728       -0.1298365725        1.3643140692
 H         -1.9385842029        1.6698907799       -0.8119757508
 H         -2.2997648431        0.1470773888       -1.6113131065
 H         -1.9882668219       -1.8415599093       -0.3652075996
 H          3.7681619091       -1.9260037857        0.5671567967
 H          5.5380490396       -0.1867316020        0.6707819704
 H          4.9479600787        2.1816058884        0.2861425562
 H          2.5950501885        2.8003441832       -0.2038376665
  32
 Etot=  -51.4239687127 g norm=  0.00034169
 C         -4.4308967401        0.8315848619        1.8982428890
 C         -3.6171017292        0.8751312382        0.6405321719
 C         -3.6162299293        2.1933047013       -0.0789560288
 C         -2.9691674649       -0.1990489367        0.2034805545
 C         -2.1192424239       -0.2682784707       -1.0394018525
 C         -0.6707118775       -0.4075734619       -0.6409359702
 C         -0.1260147789       -1.6026665280       -0.2949286860
 O         -0.7859771665       -2.7678029904       -0.3061843450
 C          1.2906680332       -1.7521212025        0.1303384979
 O          1.7518792666       -2.8509537119        0.4022244422
 C          2.0833297322       -0.5169147578        0.1959587428
 C          3.4135026479       -0.5799184364        0.6017353818
 C          4.1807068935        0.5712985078        0.6714032269
 C          3.6232787129        1.7951871470        0.3364417733
 C          2.2997784846        1.8676298681       -0.0694775718
 C          1.5197634894        0.7192841708       -0.1440934646
 C          0.1121706085        0.8257872830       -0.5825937548
 O         -0.3722823466        1.9122041461       -0.8894320902
 H         -4.0358693899        1.5459854593        2.6195518652
 H         -4.4201413806       -0.1585391799        2.3461226135
 H         -5.4613619046        1.1110948940        1.6841803004
 H         -2.6028219709        2.4938189769       -0.3401364945
 H         -4.0557913022        2.9663061709        0.5448088756
 H         -4.1959082181        2.1266856220       -0.9989378295
 H         -3.0027096103       -1.1079104195        0.7903162175
 H         -2.2245617088        0.6475943434       -1.6181452377
 H         -2.4339696529       -1.1071479747       -1.6654404648
 H         -1.7007653812       -2.6642391482       -0.6198500389
 H          3.8242344521       -1.5453587179        0.8563769505
 H          5.2102210759        0.5116666731        0.9865829523
 H          4.2168760699        2.6939815603        0.3898333483
 H          1.8469342316        2.8109260566       -0.3361009139
  32
 Etot=  -51.4237015215 g norm=  0.00053169
 C         -5.0538229018       -0.2127994120        1.5223427961
 C         -4.1929825950        0.1990956594        0.3653730798
 C         -4.9424791659        0.4263379849       -0.9122157592
 C         -2.8817883731        0.3670342916        0.5118588175
 C         -1.9135131217        0.8316634381       -0.5424298956
 C         -0.5137886978        0.3265340962       -0.3085332697
 C         -0.2499759154       -0.9956027745       -0.1418106267
 O         -1.1791951562       -1.9570205598       -0.1708526692
 C          1.1227019735       -1.5230793698        0.0822706049
 O          1.3209266086       -2.7212492084        0.2189178786
 C          2.2019404076       -0.5264740447        0.1262463879
 C          3.5117025424       -0.9475018836        0.3389773075
 C          4.5458128224       -0.0269148989        0.3865100540
 C          4.2783693886        1.3227895548        0.2213956747
 C          2.9774248304        1.7516376007        0.0081082702
 C          1.9312451887        0.8375441335       -0.0414379584
 C          0.5539077084        1.3236201453       -0.2698480786
 O          0.3220701992        2.5211166682       -0.4217099107
 H         -5.5485597000       -1.1589843861        1.3077027199
 H         -5.8292075369        0.5327784109        1.6913122618
 H         -4.4703791568       -0.3221172978        2.4324593970
 H         -5.7170316695       -0.3279914846       -1.0329532199
 H         -4.2952325262        0.4091982905       -1.7834931409
 H         -5.4302203911        1.3998469856       -0.8783985892
 H         -2.4406618855        0.2185664863        1.4899023500
 H         -1.8640321941        1.9255734109       -0.5386540647
 H         -2.2463372328        0.5305597003       -1.5396046252
 H         -2.0776401348       -1.5870025598       -0.2576937667
 H          3.6941089306       -2.0041319672        0.4647167403
 H          5.5567001458       -0.3636514094        0.5524140848
 H          5.0802868805        2.0430277900        0.2579162162
 H          2.7471728365        2.7983320097       -0.1235517832
  32
 Etot=  -51.4237452226 g norm=  0.00053266
 C         -4.9524821196       -0.5655637678        1.5450921421
 C         -4.1037896950       -0.0830219307        0.4063909686
 C         -4.8238653399       -0.0088432619       -0.9054141562
 C         -2.8332350106        0.2620287545        0.6008674815
 C         -1.8720969643        0.8070829107       -0.4188257091
 C         -0.4626569804        0.3155553553       -0.2085023665
 C         -0.1823364892       -1.0044844257       -0.0511302041
 O         -1.1033860891       -1.9737666328       -0.0648655427
 C          1.1995460361       -1.5185899494        0.1458072752
 O          1.4115359178       -2.7140850076        0.2849149068
 C          2.2705450972       -0.5123054876        0.1588487957
 C          3.5894958685       -0.9217018931        0.3343626208
 C          4.6162840769        0.0079133808        0.3517056465
 C          4.3322280626        1.3551865498        0.1939710991
 C          3.0219121320        1.7725872933        0.0190413374
 C          1.9829313984        0.8492660590       -0.0007251860
 C          0.5951236411        1.3232730711       -0.1884084331
 O          0.3471092918        2.5196401328       -0.3231734823
 H         -5.3044289245       -1.5777531645        1.3509901215
 H         -5.8284307362        0.0721585703        1.6520916137
 H         -4.4011141078       -0.5610629400        2.4812843512
 H         -5.4918153791        0.8518239796       -0.9028941986
 H         -5.4336537677       -0.8985763087       -1.0485975268
 H         -4.1492527356        0.0944258446       -1.7495041455
 H         -2.4249199688        0.2045034338        1.6026125182
 H         -1.8431696252        1.8994323160       -0.3488360053
 H         -2.1913755512        0.5595084760       -1.4343177218
 H         -2.0072689676       -1.6037946225       -0.1109198176
 H          3.7846126269       -1.9766288915        0.4553839443
 H          5.6345295572       -0.3198373073        0.4879444043
 H          5.1284823627        2.0824488121        0.2064492644
 H          2.7785512026        2.8172302492       -0.1052896472
  32
 Etot=  -51.4239556022 g norm=  0.00026303
 C         -4.4160778255        0.7325145728        1.9349352589
 C         -3.5837270497        0.8641705081        0.6954599085
 C         -3.5423622815        2.2392346909        0.0929859717
 C         -2.9569647158       -0.1847704794        0.1745343376
 C         -2.0955277030       -0.1703915548       -1.0623092580
 C         -0.6511784571       -0.3542102913       -0.6657429619
 C         -0.1273803343       -1.5752632071       -0.3837805807
 O         -0.8045531206       -2.7274872086       -0.4658541141
 C          1.2820454302       -1.7702608617        0.0477218347
 O          1.7184053734       -2.8882530003        0.2800677372
 C          2.0990745803       -0.5551894508        0.1675954175
 C          3.4289482292       -0.6629238452        0.5646714559
 C          4.2192655939        0.4685560737        0.6833913103
 C          3.6851586990        1.7172129411        0.4072402650
 C          2.3616464862        1.8344231236        0.0115916647
 C          1.5589285288        0.7063144116       -0.1126090801
 C          0.1518459405        0.8607790594       -0.5382292536
 O         -0.3150610746        1.9709722613       -0.7807561046
 H         -4.0127567677        1.3690079526        2.7216421783
 H         -4.4389232113       -0.2931464602        2.2934204661
 H         -5.4353400336        1.0588329096        1.7339935116
 H         -4.1350396776        2.2732136067       -0.8205587439
 H         -2.5223041236        2.5269949697       -0.1559620239
 H         -3.9475272941        2.9693416462        0.7878895856
 H         -3.0211777032       -1.1388549856        0.6815730485
 H         -2.1869226829        0.7865232573       -1.5731124144
 H         -2.4132638180       -0.9574448498       -1.7508859698
 H         -1.7131355906       -2.5934965304       -0.7859334276
 H          3.8211358263       -1.6468435393        0.7740579816
 H          5.2487692407        0.3741458612        0.9901827553
 H          4.2970879146        2.6006054733        0.4977239379
 H          1.9271749880        2.7978121354       -0.2095807411
  32
 Etot=  -51.4237223198 g norm=  0.00070573
 C         -4.9450356925       -0.6253064809        1.5463590696
 C         -4.1003850109       -0.0874262603        0.4297654204
 C         -4.8269101146        0.0576149942       -0.8726357836
 C         -2.8275830174        0.2429903861        0.6349070830
 C         -1.8719302659        0.8408706871       -0.3602554204
 C         -0.4632624415        0.3313668453       -0.1912539441
 C         -0.1897907077       -0.9973784306       -0.1177564668
 O         -1.1186373154       -1.9573130438       -0.1783296082
 C          1.1913525679       -1.5310808126        0.0240564642
 O          1.3984209672       -2.7346290251        0.0713482006
 C          2.2677451811       -0.5331177299        0.0985832228
 C          3.5855152519       -0.9598471935        0.2382591190
 C          4.6171128240       -0.0385111226        0.3151648882
 C          4.3389613594        1.3177898896        0.2538432586
 C          3.0300313305        1.7524063817        0.1135569851
 C          1.9863410723        0.8376114383        0.0342100615
 C          0.6004734261        1.3300856052       -0.1173521502
 O          0.3589844088        2.5337471232       -0.1782600092
 H         -4.3887879540       -0.6710307160        2.4786148566
 H         -5.3018829762       -1.6249361313        1.3021203196
 H         -5.8181074767        0.0090269482        1.6905992019
 H         -5.4802408357        0.9285744336       -0.8273913224
 H         -5.4524173919       -0.8148773877       -1.0510748948
 H         -4.1554749390        0.1872097491       -1.7157168768
 H         -2.4131334219        0.1301257301        1.6294129372
 H         -1.8370169111        1.9273302947       -0.2287348709
 H         -2.2011297070        0.6523152434       -1.3852924222
 H         -2.0196086227       -1.5769751878       -0.1854492574
 H          3.7758609797       -2.0215815785        0.2848418280
 H          5.6342767519       -0.3797611693        0.4235834648
 H          5.1387132179        2.0387482441        0.3144157320
 H          2.7915590851        2.8043479773        0.0625760453
  32
 Etot=  -51.4236915048 g norm=  0.00039138
 C         -5.0986868853       -0.1960513151       -1.5599234748
 C         -4.1971813775        0.3490386259       -0.4963967816
 C         -4.8692091062        1.0693783035        0.6359884674
 C         -2.8772867721        0.2020259175       -0.5506393752
 C         -1.9306262565        0.7503996599        0.4858906153
 C         -0.5186483114        0.2645673235        0.3045124409
 C         -0.2113864141       -1.0584730475        0.3282018206
 O         -1.1056836637       -2.0340162725        0.5226204609
 C          1.1734710808       -1.5698549768        0.1469440760
 O          1.4112461209       -2.7680499028        0.1853631423
 C          2.2142218242       -0.5573070312       -0.0798569933
 C          3.5321273178       -0.9638915038       -0.2694162207
 C          4.5308297429       -0.0285700228       -0.4852580422
 C          4.2197292028        1.3216938303       -0.5122804035
 C          2.9105270362        1.7363445327       -0.3230652557
 C          1.8993363522        0.8073117483       -0.1066910638
 C          0.5122409803        1.2785135770        0.0924398572
 O          0.2433790074        2.4777867095        0.0815255244
 H         -4.5342514489       -0.7203489858       -2.3265202120
 H         -5.6544565192        0.6150921400       -2.0283899580
 H         -5.8211425233       -0.8830873008       -1.1213682336
 H         -5.9349813500        1.1657304588        0.4527341059
 H         -4.4441093535        2.0638773317        0.7608894472
 H         -4.7293586414        0.5330437057        1.5737799276
 H         -2.4221616414       -0.2944418787       -1.3973963053
 H         -2.2868177538        0.4977156655        1.4903771140
 H         -1.9090975249        1.8436561287        0.4246823492
 H         -2.0110259017       -1.6854801494        0.6067043301
 H          3.7486150168       -2.0213579756       -0.2445861871
 H          5.5482654149       -0.3542114619       -0.6318133604
 H          4.9941159617        2.0534065832       -0.6794228411
 H          2.6465716281        2.7832636462       -0.3393220834
  32
 Etot=  -51.4236779024 g norm=  0.00033403
 C         -5.1236415327       -0.0803040859       -1.4053720882
 C         -4.2096844337        0.3913765271       -0.3175705192
 C         -4.8661939155        1.0490247734        0.8609611555
 C         -2.8919786529        0.2339033399       -0.3896795191
 C         -1.9327600858        0.7068206104        0.6722960674
 C         -0.5241080523        0.2334106106        0.4394568636
 C         -0.2190661280       -1.0885642378        0.3701314059
 O         -1.1123778149       -2.0740622949        0.5121878403
 C          1.1615275616       -1.5880592412        0.1323264307
 O          1.3975978396       -2.7863644589        0.0883264399
 C          2.2001536472       -0.5635493816       -0.0451444404
 C          3.5132658015       -0.9578398531       -0.2868585113
 C          4.5096400927       -0.0111558857       -0.4595798162
 C          4.2010534586        1.3381969892       -0.3903459701
 C          2.8967535198        1.7405455658       -0.1480209753
 C          1.8877819549        0.8001367717        0.0252252483
 C          0.5056147507        1.2582619262        0.2813004953
 O          0.2398156403        2.4557178752        0.3594954631
 H         -4.5696151310       -0.5634842780       -2.2057901477
 H         -5.6744512150        0.7624169856       -1.8208099470
 H         -5.8498144249       -0.7853854968       -1.0032117233
 H         -4.7250283647        0.4564024564        1.7642106175
 H         -5.9322500571        1.1666026282        0.6917573097
 H         -4.4297842880        2.0301938871        1.0414386838
 H         -2.4479353397       -0.2165021304       -1.2673295478
 H         -2.2777944220        0.3829625313        1.6602597486
 H         -1.9102732697        1.8016197189        0.6891269150
 H         -2.0157845034       -1.7305863152        0.6305318495
 H          3.7279427980       -2.0148083646       -0.3363201578
 H          5.5232775025       -0.3272433978       -0.6477950135
 H          4.9736499855        2.0786917740       -0.5237847657
 H          2.6348858437        2.7864689425       -0.0894254945
  32
 Etot=  -51.4239519686 g norm=  0.00032083
 C         -4.3747945535        1.1936611335        1.8544669789
 C         -3.5789731212        1.0323241846        0.5948234162
 C         -3.5686220500        2.2265658173       -0.3155909694
 C         -2.9561817038       -0.1076193743        0.3167577869
 C         -2.1298409280       -0.3805744058       -0.9140702291
 C         -0.6735536713       -0.4679200953       -0.5283173555
 C         -0.1337129165       -1.5928007853        0.0082951238
 O         -0.8073546120       -2.7314636195        0.2141487011
 C          1.2912567034       -1.6880804480        0.4215739454
 O          1.7461713349       -2.7296530859        0.8716530421
 C          2.0997089066       -0.4733600693        0.2504338382
 C          3.4392482792       -0.4858056755        0.6291572375
 C          4.2217425145        0.6469171830        0.4766255091
 C          3.6703552394        1.8019212568       -0.0551419241
 C          2.3374481901        1.8237938546       -0.4352493396
 C          1.5420668533        0.6930665165       -0.2881817962
 C          0.1246368143        0.7441749322       -0.7046537806
 O         -0.3554460988        1.7683461005       -1.1841506427
 H         -5.4043119355        1.4531474085        1.6124269930
 H         -3.9603036702        2.0035342898        2.4534787161
 H         -4.3711716716        0.2832879795        2.4480020337
 H         -3.9673884751        3.0971402477        0.1971793330
 H         -4.1817540527        2.0397871656       -1.1965706981
 H         -2.5581103291        2.4546681382       -0.6505434885
 H         -2.9960764487       -0.9161721489        1.0352259549
 H         -2.2419212177        0.4318558209       -1.6297923586
 H         -2.4610207514       -1.3059711951       -1.3925057160
 H         -1.7279703161       -2.6688736183       -0.0932276397
 H          3.8447469526       -1.3977828799        1.0410683845
 H          5.2587428615        0.6263293830        0.7716404780
 H          4.2758090583        2.6862419796       -0.1749196861
 H          1.8889193651        2.7131243123       -0.8522058844
  32
 Etot=  -51.4249948761 g norm=  0.00055555
 C         -4.5605179713       -0.6402547043        1.4213898371
 C         -3.3639357905        0.0267141974        0.8156625129
 C         -2.3642562587        0.5511072344        1.8018527861
 C         -3.2107117563        0.1157012536       -0.5029507539
 C         -2.0542972654        0.7801752047       -1.2049919851
 C         -0.6957692879        0.2873776204       -0.7699833981
 C         -0.4072156139       -1.0357605826       -0.6648173979
 O         -1.2740447931       -2.0190603929       -0.9284670921
 C          0.9257526988       -1.5404482335       -0.2409627976
 O          1.1417825099       -2.7396662986       -0.1442903875
 C          1.9467120871       -0.5221642081        0.0427741585
 C          3.2225484042       -0.9228694596        0.4292796592
 C          4.2015358825        0.0190442308        0.7004256250
 C          3.9117911154        1.3696544896        0.5886664904
 C          2.6433354113        1.7783219904        0.2068099740
 C          1.6532220891        0.8425325324       -0.0695629013
 C          0.3075752936        1.3065272632       -0.4678176254
 O          0.0473816252        2.5062885245       -0.5353222715
 H         -5.2191446103       -1.0467452293        0.6590719349
 H         -5.1214560765        0.0749157198        2.0212156836
 H         -4.2417911667       -1.4461074945        2.0807734192
 H         -1.6672336812       -0.2388830887        2.0854379314
 H         -2.8682096213        0.8896112953        2.7039738471
 H         -1.7887549086        1.3773972646        1.3921118162
 H         -3.9920261543       -0.2666700654       -1.1460647056
 H         -2.0724608858        1.8599065404       -1.0241330118
 H         -2.1542036183        0.6378863685       -2.2840672848
 H         -2.1595638894       -1.6666636013       -1.1403168988
 H          3.4228400999       -1.9807054610        0.5099306721
 H          5.1872021790       -0.3018802893        0.9976208647
 H          4.6709201790        2.1063185199        0.7986368214
 H          2.3958929308        2.8254452676        0.1158914837
  32
 Etot=  -51.4237186071 g norm=  0.00033694
 C         -5.0483172865       -0.6008140122        1.3135446380
 C         -4.1605621039       -0.0160046786        0.2554340565
 C         -4.8440270702        0.2151997783       -1.0577940884
 C         -2.8896033927        0.2792689061        0.5176346611
 C         -1.8932338653        0.9162189755       -0.4109879005
 C         -0.4997637386        0.3693217467       -0.2329541301
 C         -0.2523764801       -0.9665813179       -0.2295880265
 O         -1.1957596579       -1.9029871441       -0.3747004995
 C          1.1138765679       -1.5345726936       -0.0767385181
 O          1.2973797732       -2.7428193193       -0.0908559265
 C          2.2054073277       -0.5638856448        0.0860147255
 C          3.5104110688       -1.0235617373        0.2405000881
 C          4.5557506506       -0.1282775729        0.3972665757
 C          4.3045225343        1.2346885978        0.4003750794
 C          3.0084929623        1.7020556998        0.2468351409
 C          1.9510808418        0.8135947918        0.0888167912
 C          0.5792183794        1.3409947465       -0.0717236826
 O          0.3613263242        2.5507645674       -0.0692205433
 H         -4.5209207823       -0.7143669089        2.2565627752
 H         -5.4187587971       -1.5756245705        0.9999046124
 H         -5.9116318389        0.0434041617        1.4714676812
 H         -4.1455439522        0.3953801316       -1.8688967013
 H         -5.4964336099        1.0838663272       -0.9779343192
 H         -5.4650011445       -0.6412497476       -1.3117410507
 H         -2.5085690742        0.1019812636        1.5161949428
 H         -1.8419522526        1.9916045649       -0.2113185538
 H         -2.1947634178        0.7980575893       -1.4548325014
 H         -2.0886705261       -1.5043275056       -0.3907098994
 H          3.6798230053       -2.0899009840        0.2357010805
 H          5.5628297088       -0.4948068366        0.5165840985
 H          5.1152093208        1.9352431177        0.5225541287
 H          2.7905762043        2.7596613004        0.2463139032
  32
 Etot=  -51.4249671712 g norm=  0.00049476
 C         -4.7730955523       -0.6003168104        0.9763507721
 C         -3.5200053504        0.0661675879        0.4974146907
 C         -2.5811142617        0.5040436664        1.5807597773
 C         -3.2699279420        0.2255643198       -0.7996895449
 C         -2.0508400561        0.8953985803       -1.3801605789
 C         -0.7375177576        0.3519159382       -0.8729764755
 C         -0.4837196295       -0.9811503233       -0.8128219110
 O         -1.3506741896       -1.9291920273       -1.1838341004
 C          0.8051385531       -1.5365089664       -0.3218522885
 O          0.9838021555       -2.7437284887       -0.2525075814
 C          1.8312239788       -0.5565602438        0.0614555954
 C          3.0766558154       -1.0045185032        0.4929481087
 C          4.0597725742       -0.0993746739        0.8579114724
 C          3.8036164332        1.2613975289        0.7987617984
 C          2.5652525530        1.7168822624        0.3736272656
 C          1.5724025606        0.8183698836        0.0000054816
 C          0.2611870973        1.3317295689       -0.4493894601
 O          0.0253358262        2.5384239075       -0.4616142411
 H         -5.3885161784       -0.9359629800        0.1465194416
 H         -5.3543886701        0.0916449336        1.5838572433
 H         -4.5219769096       -1.4566554280        1.6004170254
 H         -3.1399497437        0.7997059036        2.4657370625
 H         -1.9616045479        1.3393565440        1.2632978170
 H         -1.9225482472       -0.3188658600        1.8622372365
 H         -4.0120496048       -0.0971992378       -1.5175597584
 H         -2.0618236686        1.9655534433       -1.1488858011
 H         -2.0727138572        0.8051972635       -2.4693754784
 H         -2.2114578855       -1.5433297314       -1.4364306341
 H          3.2505182271       -2.0693615438        0.5326051720
 H          5.0222165624       -0.4565674766        1.1881033940
 H          4.5658575879        1.9693391101        1.0830549706
 H          2.3442564076        2.7725881502        0.3216870444
  32
 Etot=  -51.4237019509 g norm=  0.00037725
 C         -5.0818268343        0.1397270397        1.5592176467
 C         -4.1868490844        0.4921742352        0.4121235739
 C         -4.8656825079        1.0135664751       -0.8209798661
 C         -2.8672064870        0.3487072023        0.4805911492
 C         -1.9261654313        0.7080397973       -0.6402472681
 C         -0.5172914593        0.2430609468       -0.3919631115
 C         -0.2224313625       -1.0686014965       -0.1966899651
 O         -1.1262550102       -2.0543753110       -0.2201435530
 C          1.1590374692       -1.5565138755        0.0608244220
 O          1.3856206464       -2.7468934681        0.2194601031
 C          2.2100927517       -0.5306674643        0.1134011697
 C          3.5245886386       -0.9122526920        0.3678663540
 C          4.5323058557        0.0365464206        0.4239616263
 C          4.2340194890        1.3752085043        0.2247135682
 C          2.9284365599        1.7646872583       -0.0310055440
 C          1.9082113272        0.8221764198       -0.0882296633
 C          0.5250366266        1.2669978683       -0.3613445687
 O          0.2685722978        2.4531201969       -0.5565362690
 H         -5.8191532290       -0.5975442940        1.2449685796
 H         -5.6202040750        1.0242556007        1.8966684748
 H         -4.5148700536       -0.2626696031        2.3944365634
 H         -4.4195086937        1.9564682794       -1.1326545904
 H         -5.9244228236        1.1711705834       -0.6392460970
 H         -4.7609286603        0.3114046995       -1.6473943352
 H         -2.4072346869       -0.0021499210        1.3947540578
 H         -1.8930094149        1.7961862109       -0.7599171448
 H         -2.2949665789        0.2975163780       -1.5861553302
 H         -2.0296990296       -1.7173637283       -0.3553776229
 H          3.7317297484       -1.9610264229        0.5190754316
 H          5.5470310564       -0.2695671350        0.6228817191
 H          5.0153769572        2.1171579123        0.2678319202
 H          2.6739026066        2.8020565444       -0.1898185278
  32
 Etot=  -51.4239762946 g norm=  0.00024659
 C         -4.5499070764        0.3216440632       -1.8271115543
 C         -3.6962311331        0.6421948465       -0.6377897492
 C         -3.7004065307        2.0825759906       -0.2127146652
 C         -3.0105187231       -0.3054119285       -0.0083673605
 C         -2.1207867507       -0.0978906063        1.1904774394
 C         -0.6827921665       -0.2955314421        0.7790527794
 C         -0.1193484990       -1.5274235340        0.6806655578
 O         -0.7480283252       -2.6742612330        0.9680724151
 C          1.2869452699       -1.7400604241        0.2468623066
 O          1.7696214991       -2.8625330113        0.2094262995
 C          2.0426398588       -0.5351551534       -0.1217004348
 C          3.3579984481       -0.6615061995       -0.5598819721
 C          4.0896612162        0.4597991734       -0.9149844606
 C          3.5116959436        1.7169317390       -0.8342459057
 C          2.2032791306        1.8527985580       -0.3969749050
 C          1.4585900426        0.7350268969       -0.0381009481
 C          0.0663585609        0.9096351141        0.4267403185
 O         -0.4330206361        2.0284494249        0.5160070388
 H         -4.1972388476        0.8757331422       -2.6961404455
 H         -5.5792794455        0.6222656042       -1.6371159502
 H         -4.5299628080       -0.7400468999       -2.0580465578
 H         -2.6854227679        2.4464027310       -0.0613732605
 H         -4.2447045905        2.2036863251        0.7231286927
 H         -4.1797511925        2.6994243246       -0.9674324657
 H         -3.0429581508       -1.3182038258       -0.3886061240
 H         -2.3966262007       -0.7907027303        1.9895874046
 H         -2.2286092971        0.9177764497        1.5669943692
 H         -1.6559904260       -2.5237758028        1.2830288698
 H          3.7852503071       -1.6516338955       -0.6134910726
 H          5.1077464780        0.3509621967       -1.2533423002
 H          4.0774825139        2.5925643668       -1.1102909502
 H          1.7350501238        2.8232061649       -0.3254488788
  32
 Etot=  -51.4239653325 g norm=  0.00026709
 C         -4.4925194409        0.6694085818        1.7988248626
 C         -3.6577024751        0.7924394813        0.5602535774
 C         -3.6402484206        2.1554843213       -0.0696901933
 C         -3.0070272612       -0.2538266606        0.0637180575
 C         -2.1388526697       -0.2461330111       -1.1684787654
 C         -0.6945242251       -0.3972897942       -0.7586453162
 C         -0.1483435579       -1.6047302844       -0.4608632883
 O         -0.8008670997       -2.7714699598       -0.5372437946
 C          1.2620908973       -1.7669343456       -0.0195310380
 O          1.7235584343       -2.8746425145        0.2139957609
 C          2.0489561177       -0.5327719511        0.1088599315
 C          3.3741664387       -0.6082474795        0.5287044813
 C          4.1361808849        0.5415156622        0.6556554314
 C          3.5788933563        1.7764300211        0.3635371637
 C          2.2603276013        1.8614591215       -0.0556997278
 C          1.4853056910        0.7147364553       -0.1868147686
 C          0.0822663726        0.8351750045       -0.6357329909
 O         -0.4034755766        1.9324557196       -0.8986532661
 H         -5.5165649477        0.9738148659        1.5879665048
 H         -4.1034211612        1.3276927097        2.5747946393
 H         -4.4984875133       -0.3496633350        2.1765322383
 H         -2.6231021313        2.4632904188       -0.3077193366
 H         -4.0748418103        2.8893460519        0.6031198804
 H         -4.2178570153        2.1561436849       -0.9933652168
 H         -3.0536527145       -1.1986538243        0.5896348177
 H         -2.2437807060        0.7000028861       -1.6964219428
 H         -2.4381900404       -1.0506321986       -1.8449642839
 H         -1.7103671297       -2.6599558523       -0.8633753799
 H          3.7846775587       -1.5818522608        0.7504306459
 H          5.1616062360        0.4721137070        0.9819416929
 H          4.1688335706        2.6739846594        0.4605952375
 H          1.8070970043        2.8135661313       -0.2884604646
  32
 Etot=  -51.4237489039 g norm=  0.00020452
 C         -5.1337015310       -0.4401058023        1.3294736723
 C         -4.2163289031        0.1783795537        0.3209245208
 C         -4.8765186965        0.7836557356       -0.8844457952
 C         -2.8973064436        0.1924651838        0.4898617398
 C         -1.9259078132        0.8264219398       -0.4703972508
 C         -0.5202748476        0.3125964339       -0.3104702042
 C         -0.2382619623       -1.0153405098       -0.3635361492
 O         -1.1569177462       -1.9681054144       -0.5572827631
 C          1.1405605011       -1.5549296539       -0.2261392041
 O          1.3574878703       -2.7550267656       -0.3067350892
 C          2.2028905337       -0.5664373228        0.0073326800
 C          3.5156766326       -1.0008561012        0.1681972976
 C          4.5341863149       -0.0889358388        0.3916036726
 C          4.2481731118        1.2656719893        0.4542916836
 C          2.9442591268        1.7080808728        0.2936049273
 C          1.9133673148        0.8026838754        0.0701290102
 C          0.5323807509        1.3033502660       -0.0977010885
 O          0.2851959884        2.5066664405       -0.0553396206
 H         -5.8084912301        0.3152222963        1.7300447152
 H         -4.5784541463       -0.8825433684        2.1519084152
 H         -5.7428641175       -1.2106638986        0.8583519043
 H         -4.5666762232        1.8196232139       -1.0094180499
 H         -5.9573080355        0.7534965027       -0.7839884907
 H         -4.6032127169        0.2448056477       -1.7910186327
 H         -2.4643053199       -0.2227742765        1.3904860857
 H         -1.8951985517        1.9091241810       -0.3071551536
 H         -2.2588501023        0.6693799114       -1.5011512194
 H         -2.0577067007       -1.5946624341       -0.5842041130
 H          3.7125847755       -2.0610698308        0.1144433441
 H          5.5474492884       -0.4361976325        0.5160595299
 H          5.0379242670        1.9792018506        0.6279838557
 H          2.6997655328        2.7589177464        0.3376169488
  32
 Etot=  -51.4236776246 g norm=  0.00028790
 C         -5.1190797944       -0.0403649486       -1.4749275123
 C         -4.2127299733        0.3364693669       -0.3446404624
 C         -4.8777563634        0.8886523067        0.8822274560
 C         -2.8941801169        0.1883406066       -0.4210268289
 C         -1.9454379720        0.5693286467        0.6861611973
 C         -0.5285890746        0.1419641527        0.4175067358
 C         -0.2004764874       -1.1610572785        0.2174670648
 O         -1.0758450350       -2.1719261120        0.2548125274
 C          1.1895589518       -1.6100504387       -0.0633497700
 O          1.4455306110       -2.7929702219       -0.2332674386
 C          2.2124199410       -0.5564203436       -0.1232424138
 C          3.5339473204       -0.9021764195       -0.3920031834
 C          4.5159339184        0.0729623586       -0.4521649634
 C          4.1846127517        1.4022775203       -0.2426470569
 C          2.8715544349        1.7562936907        0.0260336431
 C          1.8769170637        0.7871143064        0.0873575434
 C          0.4850219893        1.1940557643        0.3744257199
 O          0.1981124828        2.3729143195        0.5713717286
 H         -5.8459059555       -0.7791847053       -1.1401192708
 H         -4.5591885729       -0.4509079058       -2.3109782965
 H         -5.6694125022        0.8343619198       -1.8186047144
 H         -5.9436538892        1.0148642462        0.7188289215
 H         -4.4473382691        1.8535962316        1.1463477661
 H         -4.7367181255        0.2230220469        1.7329894091
 H         -2.4425078135       -0.1842872455       -1.3306056643
 H         -2.2900314114        0.1478437010        1.6367360304
 H         -1.9393054094        1.6576377134        0.8086929017
 H         -1.9853334227       -1.8605759033        0.4090046983
 H          3.7669401057       -1.9444091405       -0.5506271677
 H          5.5362690548       -0.2054131601       -0.6624349380
 H          4.9458780977        2.1647987281       -0.2890164054
 H          2.5915778305        2.7859549828        0.1916824900
  32
 Etot=  -51.4236946198 g norm=  0.00045338
 C         -5.0682325396       -0.1279893137        1.5350757029
 C         -4.1737237270        0.4014896537        0.4578319613
 C         -4.8524388256        1.1121968012       -0.6766749157
 C         -2.8542054270        0.2486728567        0.5021242667
 C         -1.9137403775        0.7805642973       -0.5484466843
 C         -0.5057989381        0.2775860638       -0.3827762345
 C         -0.2167170144       -1.0497509731       -0.3884672580
 O         -1.1261661821       -2.0164613518       -0.5546424088
 C          1.1630762600       -1.5771939123       -0.2138049655
 O          1.3835092558       -2.7791523827       -0.2324179223
 C          2.2204855907       -0.5754847470       -0.0179409022
 C          3.5343614250       -0.9969698894        0.1672213735
 C          4.5484342783       -0.0717398548        0.3529422725
 C          4.2570490566        1.2831619317        0.3535576566
 C          2.9518231337        1.7125612119        0.1694353912
 C          1.9252796429        0.7938037133       -0.0163598716
 C          0.5427029332        1.2806643147       -0.2086761297
 O          0.2914186288        2.4838440789       -0.2217907907
 H         -5.7937415563       -0.8209819365        1.1110653992
 H         -5.6205987037        0.6898984958        1.9957649713
 H         -4.4987171319       -0.6418458162        2.3049478978
 H         -4.4281489733        2.1058670083       -0.8116195091
 H         -5.9171152552        1.2100019755       -0.4875937705
 H         -4.7182275564        0.5686249976       -1.6112818897
 H         -2.3942231222       -0.2418504010        1.3494958126
 H         -1.8771206787        1.8737740243       -0.4925203774
 H         -2.2858422537        0.5287677849       -1.5472494106
 H         -2.0279766935       -1.6573651416       -0.6331546071
 H          3.7356777700       -2.0576970737        0.1616041165
 H          5.5625776892       -0.4089033483        0.4966936340
 H          5.0431702010        2.0073020713        0.4972911770
 H          2.7026825208        2.7632363713        0.1662172529
  32
 Etot=  -51.4239673864 g norm=  0.00023945
 C         -4.5306730312        0.6502039155        1.7802636606
 C         -3.6976490681        0.7463272177        0.5381416101
 C         -3.7253866489        2.0795215582       -0.1529319697
 C         -3.0095188995       -0.2976367252        0.0895929089
 C         -2.1406181069       -0.3148113098       -1.1419443129
 C         -0.6952466957       -0.4346452758       -0.7269209735
 C         -0.1254486005       -1.6281720014       -0.4180340585
 O         -0.7545185755       -2.8085188725       -0.4829694265
 C          1.2886363561       -1.7583533197        0.0225283524
 O          1.7741177815       -2.8551796908        0.2585817125
 C          2.0485175231       -0.5071058820        0.1473128670
 C          3.3736182761       -0.5522111777        0.5716501439
 C          4.1103478508        0.6142205632        0.6958364437
 C          3.5275281212        1.8355286671        0.3965430418
 C          2.2087731795        1.8902563317       -0.0271851553
 C          1.4590585086        0.7266150458       -0.1557991457
 C          0.0555045162        0.8146593380       -0.6110380528
 O         -0.4518584551        1.8995069415       -0.8845299298
 H         -4.4955031270       -0.3481964273        2.2082522259
 H         -5.5658263907        0.9006057738        1.5532041382
 H         -4.1717131894        1.3620519357        2.5226504978
 H         -2.7175225509        2.4161213127       -0.3902814524
 H         -4.1982869410        2.8251330001        0.4798501785
 H         -4.2880160477        2.0158853964       -1.0836588722
 H         -3.0235303974       -1.2197443468        0.6563112478
 H         -2.2574856787        0.6143782970       -1.6967380515
 H         -2.4291131789       -1.1422853546       -1.7951382043
 H         -1.6676400405       -2.7178090095       -0.8054943491
 H          3.8047330028       -1.5158546423        0.7979045095
 H          5.1361146093        0.5682450946        1.0252257280
 H          4.0974560881        2.7460900344        0.4919968432
 H          1.7362995415        2.8312446919       -0.2664435419
  32
 Etot=  -51.4249936699 g norm=  0.00027905
 C         -4.6537274357       -0.2476673122       -1.2963511550
 C         -3.4183002905        0.2620361477       -0.6199805843
 C         -2.4650703521        0.9960590051       -1.5140292690
 C         -3.1957785762        0.0472896006        0.6742204162
 C         -1.9937777103        0.5274005105        1.4471803991
 C         -0.6697375387        0.1560895546        0.8254811183
 C         -0.4042013188       -1.1067733944        0.4013745852
 O         -1.2675121200       -2.1243368182        0.4872110378
 C          0.8938001685       -1.4981636877       -0.2086910462
 O          1.0961009495       -2.6471451447       -0.5738402277
 C          1.8974794948       -0.4324694806       -0.3395989472
 C          3.1333400885       -0.7246921275       -0.9096631283
 C          4.0946453504        0.2635892310       -1.0452934393
 C          3.8273824412        1.5525928590       -0.6121548770
 C          2.5991273160        1.8534260737       -0.0441057209
 C          1.6267099069        0.8702039311        0.0977629250
 C          0.3231131061        1.2212375118        0.6994802056
 O          0.0862890495        2.3695845750        1.0695528956
 H         -4.3806061486       -0.8770411110       -2.1420852527
 H         -5.2386459564        0.5864885974       -1.6810235110
 H         -5.2736957274       -0.8219056779       -0.6135823163
 H         -1.7927348112        0.2911184833       -2.0055697068
 H         -1.8598260996        1.7082162169       -0.9588248775
 H         -3.0112757191        1.5301019142       -2.2880463911
 H         -3.9486769089       -0.4698706475        1.2539951310
 H         -2.0332066747        0.1269964356        2.4636188855
 H         -2.0102349887        1.6187453218        1.5335515456
 H         -2.1347765781       -1.8240541662        0.8209602807
 H          3.3166740528       -1.7360234285       -1.2402866068
 H          5.0491520968        0.0263995764       -1.4873690427
 H          4.5725907751        2.3251271070       -0.7160859974
 H          2.3702635885        2.8512205232        0.2994294093
  32
 Etot=  -51.4239668324 g norm=  0.00027262
 C         -4.5140581070        0.4747918035        1.7891130627
 C         -3.6543102957        0.7207760091        0.5864375805
 C         -3.6393441874        2.1366268273        0.0858880977
 C         -2.9809826237       -0.2680617764        0.0089711391
 C         -2.0930469193       -0.1369684931       -1.2018958205
 C         -0.6540188320       -0.3336926563       -0.7934022644
 C         -0.1114962116       -1.5668518049       -0.6209846067
 O         -0.7645068109       -2.7178154649       -0.8253744957
 C          1.2950820797       -1.7773933733       -0.1872586446
 O          1.7496941107       -2.9047150624       -0.0567353145
 C          2.0869298400       -0.5651072922        0.0618953443
 C          3.4139835022       -0.6870550174        0.4645748069
 C          4.1810457958        0.4414071396        0.7028871459
 C          3.6262177944        1.7012316428        0.5425735393
 C          2.3054384124        1.8326140472        0.1426664211
 C          1.5260420694        0.7076772904       -0.1017070355
 C          0.1220777147        0.8774783560       -0.5318239886
 O         -0.3642063914        1.9972057707       -0.6693863358
 H         -4.5084677834       -0.5734044467        2.0761061934
 H         -5.5389468221        0.7779640671        1.5802767578
 H         -4.1563502043        1.0694555685        2.6287683030
 H         -4.1026684769        2.7999839137        0.8106558673
 H         -4.1905255900        2.2167146008       -0.8503390398
 H         -2.6203699822        2.4762161056       -0.0927192570
 H         -3.0259812975       -1.2583578311        0.4434895856
 H         -2.1890026431        0.8586892257       -1.6313083873
 H         -2.3845538911       -0.8666644850       -1.9616008498
 H         -1.6711184185       -2.5709875117       -1.1455214398
 H          3.8225268608       -1.6795132310        0.5825471859
 H          5.2084146266        0.3360114686        1.0130845189
 H          4.2197229158        2.5824376910        0.7276267084
 H          1.8542878922        2.8048210098        0.0116910764
  32
 Etot=  -51.4237210840 g norm=  0.00022043
 C         -5.0916152030       -0.7050466348        1.1566882879
 C         -4.1951599989        0.0567498052        0.2263966233
 C         -4.8856946289        0.5887483075       -0.9923105730
 C         -2.9096687575        0.2434081664        0.5157766852
 C         -1.9067438524        1.0292728228       -0.2827357967
 C         -0.5186617112        0.4455581519       -0.2177611151
 C         -0.2837585552       -0.8708911691       -0.4578577710
 O         -1.2358097225       -1.7594176162       -0.7617166808
 C          1.0780812813       -1.4680059948       -0.4203953033
 O          1.2491952273       -2.6571824845       -0.6444144017
 C          2.1817457192       -0.5483547944       -0.1103678878
 C          3.4850497273       -1.0359470714       -0.0678329316
 C          4.5422237320       -0.1884125834        0.2203055491
 C          4.3043836314        1.1540721813        0.4690569313
 C          3.0098875842        1.6486073689        0.4305487096
 C          1.9408150161        0.8082797014        0.1417419499
 C          0.5710156775        1.3633994719        0.1068582921
 O          0.3634045096        2.5524430229        0.3392959415
 H         -4.5565734282       -1.0352732046        2.0429036795
 H         -5.5059053149       -1.5769499507        0.6526394125
 H         -5.9256956503       -0.0768211643        1.4652961749
 H         -5.4787589638        1.4612351868       -0.7204808608
 H         -5.5651727716       -0.1597058295       -1.3945080955
 H         -4.1910188561        0.8871543447       -1.7712461373
 H         -2.5213965661       -0.1517511508        1.4468308481
 H         -1.8427607984        2.0492981643        0.1105991321
 H         -2.2127898729        1.1093794218       -1.3290969040
 H         -2.1256802259       -1.3590146169       -0.7019053538
 H          3.6437858763       -2.0857576577       -0.2638037921
 H          5.5479004799       -0.5763155293        0.2510171569
 H          5.1242502706        1.8176601830        0.6937821225
 H          2.8025426787        2.6909386841        0.6216735274
  32
 Etot=  -51.4239784481 g norm=  0.00023479
 C         -4.5587546437        0.4518437124        1.8046284085
 C         -3.7216425871        0.6676855396        0.5804759552
 C         -3.7445228994        2.0619881581        0.0230764683
 C         -3.0340489655       -0.3288472160        0.0338475356
 C         -2.1593222036       -0.2270536585       -1.1895504561
 C         -0.7162858434       -0.3840357432       -0.7784391685
 C         -0.1471738481       -1.6005481706       -0.5757987972
 O         -0.7726425528       -2.7707827645       -0.7561874777
 C          1.2621057125       -1.7691839174       -0.1327927435
 O          1.7464921547       -2.8825812605        0.0092436427
 C          2.0183398610       -0.5340085211        0.1141271682
 C          3.3384184802       -0.6166514941        0.5482956285
 C          4.0719298334        0.5341416723        0.7858900767
 C          3.4909151384        1.7772491142        0.5910777077
 C          2.1770211624        1.8694842852        0.1588336867
 C          1.4305414158        0.7218190083       -0.0828332665
 C          0.0317881165        0.8499446443       -0.5429847448
 O         -0.4742169431        1.9548935739       -0.7225375343
 H         -5.5928764418        0.7243621515        1.5993343083
 H         -4.2018099269        1.0877822788        2.6138249664
 H         -4.5256325346       -0.5835260609        2.1335802109
 H         -2.7355906429        2.4170880417       -0.1802226408
 H         -4.2154225754        2.7430816034        0.7259722303
 H         -4.3070568198        2.0916775717       -0.9093202561
 H         -3.0521223746       -1.3019801156        0.5074755811
 H         -2.2753075089        0.7505510811       -1.6540141259
 H         -2.4429131774       -0.9887940914       -1.9200019823
 H         -1.6822708506       -2.6530273344       -1.0798518352
 H          3.7681758187       -1.5966548353        0.6918136771
 H          5.0937868697        0.4590335136        1.1220508649
 H          4.0583578798        2.6757132816        0.7751401749
 H          1.7059054663        2.8280528154        0.0002159123
  32
 Etot=  -51.4237439054 g norm=  0.00030791
 C         -4.9880176151       -0.2078844872        1.6366087046
 C         -4.1307859336        0.0498585527        0.4333810155
 C         -4.8605796041       -0.0353150361       -0.8727491773
 C         -2.8425407079        0.3561236378        0.5638394429
 C         -1.8802910338        0.6981606379       -0.5405839966
 C         -0.4693195218        0.2629510261       -0.2396186784
 C         -0.1812025174       -1.0085355382        0.1424468967
 O         -1.0957530320       -1.9734072783        0.2863775541
 C          1.2021786166       -1.4702784959        0.4346340297
 O          1.4207753536       -2.6222152148        0.7793743744
 C          2.2666277008       -0.4690637323        0.2784128224
 C          3.5876079929       -0.8337165836        0.5235531754
 C          4.6086799047        0.0916680175        0.3823703259
 C          4.3166872693        1.3902740667       -0.0037475211
 C          3.0041375553        1.7632639227       -0.2485895274
 C          1.9709788070        0.8433066103       -0.1119420902
 C          0.5808692452        1.2688148341       -0.3812604757
 O          0.3252135637        2.4243043371       -0.7134706257
 H         -4.4228289793       -0.0979100657        2.5579627792
 H         -5.4023646436       -1.2142479270        1.5977126687
 H         -5.8229177703        0.4906804786        1.6530665029
 H         -4.1912107995       -0.1629716612       -1.7179294080
 H         -5.4276141789        0.8812311176       -1.0315306755
 H         -5.5666981096       -0.8625008087       -0.8546878453
 H         -2.4206699995        0.4301185775        1.5588516165
 H         -1.8566518066        1.7835516918       -0.6835598481
 H         -2.1988637935        0.2577365664       -1.4891216335
 H         -2.0006604187       -1.6278339910        0.1600615224
 H          3.7887046705       -1.8509164126        0.8245351132
 H          5.6286581089       -0.2014782723        0.5735047305
 H          5.1084835777        2.1139071485       -0.1152392217
 H          2.7545907537        2.7698490432       -0.5494738443
  32
 Etot=  -51.4249745657 g norm=  0.00027411
 C         -4.7364398932       -0.7728159290        0.9263830842
 C         -3.4886774348       -0.0504927143        0.5199434379
 C         -2.5330304609        0.2423810500        1.6367745669
 C         -3.2580704202        0.2764770593       -0.7491901268
 C         -2.0499154394        1.0203273760       -1.2573819224
 C         -0.7248719219        0.4272716553       -0.8455768649
 C         -0.4678220482       -0.9033860744       -0.9377461464
 O         -1.3429159691       -1.8090635581       -1.3874002859
 C          0.8343247534       -1.5032493476       -0.5437467654
 O          1.0145920577       -2.7106666705       -0.6057325817
 C          1.8720292058       -0.5655787491       -0.0919980494
 C          3.1312810076       -1.0516116657        0.2482007808
 C          4.1262237115       -0.1858419980        0.6721065521
 C          3.8686162009        1.1728984376        0.7623803546
 C          2.6160131751        1.6655766615        0.4307232519
 C          1.6108045096        0.8072089949        0.0004624345
 C          0.2836647964        1.3591657019       -0.3442307822
 O          0.0423622337        2.5571350712       -0.2076245824
 H         -5.3611312806       -1.0051671416        0.0679954826
 H         -5.3110795169       -0.1606202314        1.6199073638
 H         -4.4789551662       -1.6984003788        1.4390463598
 H         -1.9082697659        1.1048023821        1.4178639527
 H         -1.8796496686       -0.6150882602        1.8051518053
 H         -3.0786761734        0.4302694794        2.5584239706
 H         -4.0121805057        0.0502842485       -1.4910882016
 H         -2.0614428826        2.0527946322       -0.8927750696
 H         -2.0887506212        1.0691049841       -2.3488423956
 H         -2.2110675856       -1.4003832005       -1.5711105313
 H          3.3061490187       -2.1143594004        0.1719404351
 H          5.0991752122       -0.5722449173        0.9310466877
 H          4.6400761602        1.8504494127        1.0924261205
 H          2.3935943845        2.7201770443        0.4966819679
  32
 Etot=  -51.4237081730 g norm=  0.00025242
 C         -5.0496303736       -0.4462195476        1.4491700574
 C         -4.1724743137        0.0997344405        0.3617837078
 C         -4.8710277782        0.2883114933       -0.9505224602
 C         -2.8981863388        0.4008775967        0.5999604554
 C         -1.9101217524        1.0056359905       -0.3584478187
 C         -0.5243460417        0.4332153402       -0.2004464291
 C         -0.3029651869       -0.9072489812       -0.1938377251
 O         -1.2670310180       -1.8257161127       -0.3162042812
 C          1.0545992496       -1.5011806980       -0.0642950032
 O          1.2156469895       -2.7124388154       -0.0859639036
 C          2.1659685575       -0.5514017672        0.0861714667
 C          3.4630368232       -1.0359795316        0.2301440149
 C          4.5267995245       -0.1609133181        0.3765762726
 C          4.3022150990        1.2066673480        0.3793150150
 C          3.0143101465        1.6989545952        0.2350204335
 C          1.9384927340        0.8308504534        0.0880627974
 C          0.5757079229        1.3844470854       -0.0611101849
 O          0.3821643010        2.5981598541       -0.0671940910
 H         -5.4288303450       -1.4286425335        1.1717328116
 H         -5.9078150451        0.2071729470        1.5973825781
 H         -4.5105392299       -0.5322792687        2.3884365642
 H         -5.4999360311       -0.5730216976       -1.1661705247
 H         -4.1818850028        0.4349483190       -1.7762343047
 H         -5.5179249980        1.1630741124       -0.8943435080
 H         -2.5055131312        0.2534762415        1.5987956045
 H         -1.8336309003        2.0821700064       -0.1738207952
 H         -2.2357331939        0.8798002885       -1.3938704817
 H         -2.1520681203       -1.4098593084       -0.3147334360
 H          3.6117112597       -2.1053129305        0.2270228077
 H          5.5272713189       -0.5468668943        0.4896645713
 H          5.1275589448        1.8916212632        0.4915257761
 H          2.8173920480        2.7607358737        0.2312492353
  32
 Etot=  -51.4237197975 g norm=  0.00027546
 C         -5.0417622351       -0.8109715365        1.1619280796
 C         -4.1674975788       -0.0300645587        0.2261250588
 C         -4.8751598299        0.4766636971       -0.9934769117
 C         -2.8865423685        0.1895881221        0.5121890340
 C         -1.9010149756        0.9937976070       -0.2900449873
 C         -0.5061595411        0.4250425327       -0.2356495861
 C         -0.2582291907       -0.8838431620       -0.5021025911
 O         -1.2016144007       -1.7742210792       -0.8268288359
 C          1.1088191299       -1.4692640565       -0.4723027011
 O          1.2918332826       -2.6514083135       -0.7223940572
 C          2.2019172339       -0.5475383859       -0.1325165114
 C          3.5086762284       -1.0255481423       -0.0879172760
 C          4.5558604915       -0.1765951924        0.2307175994
 C          4.3046576005        1.1580052042        0.5072700314
 C          3.0067213534        1.6432105541        0.4658487378
 C          1.9474715303        0.8012017674        0.1473283786
 C          0.5736083507        1.3462512747        0.1112217630
 O          0.3545961105        2.5292870612        0.3627067308
 H         -5.4439926992       -1.6895091308        0.6596543976
 H         -5.8849139451       -0.1994300816        1.4790542007
 H         -4.4932877109       -1.1323615248        2.0430747006
 H         -5.5056183345       -0.3053640803       -1.4119240292
 H         -4.1913946776        0.8251949676       -1.7611366458
 H         -5.5216212081        1.3087873630       -0.7169285748
 H         -2.4870789450       -0.1940257932        1.4433253092
 H         -1.8467437740        2.0116932454        0.1099384981
 H         -2.2152569312        1.0756482335       -1.3336864414
 H         -2.0950989722       -1.3837198751       -0.7591938248
 H          3.6781249671       -2.0690734979       -0.3071226289
 H          5.5643076946       -0.5571049678        0.2620979979
 H          5.1168599972        1.8225410073        0.7557355129
 H          2.7888000822        2.6792427480        0.6783799442
  32
 Etot=  -51.4237141107 g norm=  0.00026007
 C         -5.0397419515       -0.7524289945        1.1990972192
 C         -4.1646652731       -0.0163784387        0.2283751609
 C         -4.8735224283        0.4331640551       -1.0124168970
 C         -2.8832738859        0.2141090712        0.5037328634
 C         -1.8957633774        0.9795064574       -0.3335102158
 C         -0.5019343429        0.4112944381       -0.2525579481
 C         -0.2546095785       -0.9077072062       -0.4643349584
 O         -1.1978320824       -1.8099416029       -0.7547629752
 C          1.1119804133       -1.4923621726       -0.4083882315
 O          1.2952933944       -2.6829981960       -0.6144281962
 C          2.2044872783       -0.5592748810       -0.0988387594
 C          3.5100350708       -1.0372021939       -0.0260308083
 C          4.5567346694       -0.1776001929        0.2644368601
 C          4.3063342777        1.1677054169        0.4839223280
 C          3.0095874513        1.6529459099        0.4140877636
 C          1.9507514398        0.8001828000        0.1239543837
 C          0.5779916691        1.3451531590        0.0581421835
 O          0.3596854105        2.5381633774        0.2581248205
 H         -5.4461141120       -1.6506381265        0.7365665273
 H         -5.8801942316       -0.1246550969        1.4909241953
 H         -4.4906227101       -1.0368699588        2.0922674219
 H         -5.5490124294        1.2516618526       -0.7666431541
 H         -5.4749453005       -0.3801000706       -1.4144245311
 H         -4.1926277927        0.7808854944       -1.7825465927
 H         -2.4842654141       -0.1277990124        1.4511858211
 H         -1.8395744919        2.0141580933        0.0208966910
 H         -2.2088061797        1.0150553707       -1.3799612560
 H         -2.0912843764       -1.4169447021       -0.7066889846
 H          3.6789646779       -2.0890387869       -0.2015772883
 H          5.5643204559       -0.5579824167        0.3179616446
 H          5.1182207018        1.8408227926        0.7092134448
 H          2.7923970500        2.6973301789        0.5819162890
  32
 Etot=  -51.4236800135 g norm=  0.00076644
 C         -5.0977834507       -0.1807867913        1.4145885186
 C         -4.1942487829        0.3773568151        0.3591425399
 C         -4.8643877301        1.1238780744       -0.7572912413
 C         -2.8759604625        0.2149135881        0.4056209665
 C         -1.9247352896        0.7703638430       -0.6236374672
 C         -0.5163238376        0.2737549409       -0.4429868496
 C         -0.2175201786       -1.0508222676       -0.4862131430
 O         -1.1167680675       -2.0166248001       -0.7040227326
 C          1.1617615863       -1.5746093825       -0.2979127806
 O          1.3912693796       -2.7738331605       -0.3488751851
 C          2.2074536922       -0.5723404682       -0.0490297340
 C          3.5208795265       -0.9907669140        0.1459184628
 C          4.5238889208       -0.0657423896        0.3853716644
 C          4.2214361370        1.2859854542        0.4309595905
 C          2.9167682145        1.7124862639        0.2363717105
 C          1.9014845992        0.7939010609       -0.0039117491
 C          0.5191742244        1.2775190524       -0.2075833867
 O          0.2583092933        2.4784347098       -0.1821740548
 H         -5.8414405722       -0.8352438366        0.9618270894
 H         -5.6285623137        0.6276410517        1.9160191980
 H         -4.5383269966       -0.7433474689        2.1573098983
 H         -5.9130940899        1.2916479826       -0.5314076714
 H         -4.8009256789        0.5625012100       -1.6891620363
 H         -4.3819664667        2.0862934524       -0.9188779663
 H         -2.4243949864       -0.3051772058        1.2398977876
 H         -1.8964714497        1.8627977601       -0.5497640628
 H         -2.2799495601        0.5301682420       -1.6315422934
 H         -2.0193523051       -1.6608688630       -0.7871696242
 H          3.7308089988       -2.0490463582        0.1046741530
 H          5.5378042520       -0.4005673688        0.5358669279
 H          4.9992503016        2.0098785305        0.6164138046
 H          2.6600116692        2.7609033561        0.2659979036
  32
 Etot=  -51.4236925926 g norm=  0.00051870
 C         -5.0133493662       -0.7486352074        1.3237870715
 C         -4.1439266648       -0.0607016878        0.3132441228
 C         -4.8530582700        0.3031765217       -0.9556227807
 C         -2.8672572726        0.2042870381        0.5791501558
 C         -1.8882593410        0.9358241618       -0.2972420639
 C         -0.4906483992        0.3795477615       -0.1997439856
 C         -0.2363227416       -0.9448268851       -0.3633305189
 O         -1.1763200861       -1.8630290070       -0.6116242204
 C          1.1349142307       -1.5181585431       -0.2995726562
 O          1.3247135561       -2.7132857784       -0.4702197558
 C          2.2229735876       -0.5682799909       -0.0284716190
 C          3.5323277796       -1.0344546552        0.0511384415
 C          4.5747675716       -0.1586035452        0.3064884068
 C          4.3162176770        1.1912226748        0.4847305325
 C          3.0157460198        1.6650207069        0.4069723924
 C          1.9612801323        0.7961728160        0.1508108737
 C          0.5848640705        1.3302630893        0.0727693122
 O          0.3602724466        2.5281860395        0.2320145970
 H         -4.4662300570       -0.9648364961        2.2370985986
 H         -5.3999648372       -1.6819475757        0.9176505153
 H         -5.8666699801       -0.1185618666        1.5687684982
 H         -4.1719524005        0.5871755649       -1.7514132552
 H         -5.5205605813        1.1434489363       -0.7694420539
 H         -5.4622388124       -0.5320750619       -1.2951499649
 H         -2.4669328491       -0.0759875596        1.5459654546
 H         -1.8359050126        1.9852567897        0.0110575431
 H         -2.2077503851        0.9233690959       -1.3422520148
 H         -2.0714898724       -1.4734435799       -0.5695520617
 H          3.7078044549       -2.0902528147       -0.0910143490
 H          5.5851916215       -0.5304034729        0.3659668620
 H          5.1246268366        1.8769426059        0.6830418877
 H          2.7920951965        2.7126731427        0.5428483790
  32
 Etot=  -51.4237111676 g norm=  0.00021002
 C         -5.0450048533       -0.1122550815        1.5979097457
 C         -4.1894161808        0.2385677576        0.4171777578
 C         -4.9485526846        0.4169435269       -0.8620948272
 C         -2.8749082959        0.3947297796        0.5455198998
 C         -1.9083873504        0.7954797870       -0.5365736735
 C         -0.5082327520        0.3045820487       -0.2765292391
 C         -0.2457567505       -1.0027023121       -0.0162747942
 O         -1.1764516074       -1.9618191113        0.0269653270
 C          1.1264042730       -1.5145306658        0.2446883789
 O          1.3211129721       -2.6973348025        0.4824072371
 C          2.2092431696       -0.5221117136        0.1971130865
 C          3.5202262315       -0.9307387160        0.4259472260
 C          4.5580813448       -0.0142268170        0.3851037494
 C          4.2931716835        1.3190927601        0.1154691924
 C          2.9908030924        1.7357985647       -0.1124685442
 C          1.9409065591        0.8255335765       -0.0746195188
 C          0.5618994329        1.2986419569       -0.3199304895
 O          0.3311356336        2.4831494856       -0.5534970911
 H         -5.5506596268       -1.0619600376        1.4290724343
 H         -5.8116360685        0.6477248071        1.7396591328
 H         -4.4554440102       -0.1869334813        2.5075065395
 H         -5.6915373168       -0.3706528382       -0.9706616990
 H         -4.3020911279        0.4153387394       -1.7341269750
 H         -5.4774213776        1.3691939099       -0.8389855181
 H         -2.4288313578        0.2853849298        1.5265178202
 H         -1.8581398702        1.8875689614       -0.5994564759
 H         -2.2428082242        0.4347485536       -1.5132169817
 H         -2.0742784465       -1.5975517801       -0.0880105326
 H          3.7004612669       -1.9746860378        0.6342543359
 H          5.5699027906       -0.3412793512        0.5637360150
 H          5.0981761317        2.0358991683        0.0816948532
 H          2.7624521299        2.7696794671       -0.3243099955
  32
 Etot=  -51.4239587621 g norm=  0.00032508
 C         -4.4838469939        0.1786969383       -1.8068631188
 C         -3.5991588121        0.6469698735       -0.6914078432
 C         -3.5472536115        2.1347189728       -0.4941073911
 C         -2.9362267714       -0.2173031350        0.0689015027
 C         -2.0209923658        0.1386713537        1.2124533524
 C         -0.5954424948       -0.1633789965        0.8209923257
 C         -0.0758484835       -1.4165533894        0.8873673739
 O         -0.7402019190       -2.4895459700        1.3347774329
 C          1.3159439497       -1.7373146955        0.4741911923
 O          1.7561732439       -2.8729296456        0.5791774787
 C          2.1116267904       -0.6198050010       -0.0516656177
 C          3.4190228581       -0.8501125733       -0.4707655495
 C          4.1893008861        0.1882371560       -0.9679585641
 C          3.6578586151        1.4655651124       -1.0504368081
 C          2.3570258450        1.7045492142       -0.6353476066
 C          1.5740997968        0.6708094879       -0.1342159060
 C          0.1905649705        0.9547228143        0.3018754448
 O         -0.2722724583        2.0905282754        0.2313719508
 H         -4.5095618017       -0.9060869376       -1.8672875896
 H         -4.1234998914        0.5733982287       -2.7560268394
 H         -5.4971560345        0.5481255217       -1.6569460461
 H         -4.0856562183        2.4189661936        0.4091990246
 H         -4.0044601869        2.6450420475       -1.3369386551
 H         -2.5194377724        2.4799076804       -0.3962952230
 H         -3.0105146643       -1.2744922951       -0.1507329655
 H         -2.3051681724       -0.4182504381        2.1089817709
 H         -2.0929282950        1.2019303794        1.4343753480
 H         -1.6352451191       -2.2625366887        1.6404338890
 H          3.8098161659       -1.8537790060       -0.3958029027
 H          5.2012171818       -0.0005359577       -1.2892163431
 H          4.2540565749        2.2768445655       -1.4369358688
 H          1.9244806999        2.6923821140       -0.6904791190
  32
 Etot=  -51.4237078529 g norm=  0.00049467
 C         -5.0935881360        0.1300685092        1.5986116490
 C         -4.2018660632        0.4216545369        0.4319644693
 C         -4.8868504921        0.8373511968       -0.8371851830
 C         -2.8793635275        0.3175849191        0.5153608967
 C         -1.9410717172        0.6233683793       -0.6231345864
 C         -0.5268422559        0.1889055438       -0.3506293243
 C         -0.2189499742       -1.1046646973       -0.0722253271
 O         -1.1146674599       -2.0971396902       -0.0248158446
 C          1.1683996808       -1.5629593171        0.2057353989
 O          1.4065445429       -2.7377830495        0.4442410267
 C          2.2115859072       -0.5280741736        0.1769480373
 C          3.5323108386       -0.8831849871        0.4369317478
 C          4.5330798113        0.0743753800        0.4175045358
 C          4.2211614866        1.3953501444        0.1373986499
 C          2.9091052493        1.7583568200       -0.1242115703
 C          1.8959800378        0.8067110468       -0.1073839061
 C          0.5059579908        1.2221900551       -0.3918270539
 O          0.2361647132        2.3920563273       -0.6552855797
 H         -5.7979692177       -0.6601852338        1.3424748974
 H         -5.6701966282        1.0172718227        1.8570677790
 H         -4.5192233572       -0.1782394629        2.4682288619
 H         -4.7016770109        0.1168911137       -1.6329335392
 H         -4.5093446810        1.8014103807       -1.1741631735
 H         -5.9593447385        0.9154746074       -0.6882272208
 H         -2.4161802784        0.0451931694        1.4540773037
 H         -1.9204030521        1.7033625399       -0.8040933247
 H         -2.3037031852        0.1560237104       -1.5448729517
 H         -2.0219343889       -1.7740268762       -0.1695396436
 H          3.7495152675       -1.9186057313        0.6524205813
 H          5.5528865681       -0.2113135347        0.6205076436
 H          4.9973368219        2.1441341020        0.1206797009
 H          2.6446151883        2.7815529372       -0.3458233196
  32
 Etot=  -51.4237143512 g norm=  0.00025174
 C         -5.1001222906        0.2153482034        1.5494660078
 C         -4.1934850140        0.5229584894        0.3985036741
 C         -4.8609813501        0.9819544500       -0.8651986789
 C         -2.8737393644        0.3955710753        0.4901283166
 C         -1.9210709308        0.7147916350       -0.6325723638
 C         -0.5170749845        0.2471857375       -0.3620736741
 C         -0.2332236558       -1.0587110008       -0.1180988124
 O         -1.1449864965       -2.0375168482       -0.1051634271
 C          1.1440771091       -1.5483861754        0.1574473746
 O          1.3595704438       -2.7328532448        0.3676891598
 C          2.2056679155       -0.5320555861        0.1604905178
 C          3.5190468718       -0.9174262710        0.4149963704
 C          4.5366970938        0.0223512605        0.4242522062
 C          4.2490579037        1.3559240259        0.1799349393
 C          2.9444462900        1.7491881890       -0.0751656680
 C          1.9147687199        0.8153215667       -0.0882393294
 C          0.5337569738        1.2629272765       -0.3672919837
 O          0.2859054326        2.4444010906       -0.5985870989
 H         -5.8146652475       -0.5560369811        1.2656197414
 H         -5.6645424155        1.1041955054        1.8277266232
 H         -4.5385288640       -0.1265465667        2.4146083180
 H         -4.7023614578        0.2653332779       -1.6702915394
 H         -4.4474943576        1.9357048908       -1.1891322610
 H         -5.9302347487        1.0979903036       -0.7159275195
 H         -2.4226007166        0.0926883502        1.4256506886
 H         -1.8789477461        1.7987768760       -0.7838920785
 H         -2.2853653084        0.2793287049       -1.5689897398
 H         -2.0459016239       -1.6978905310       -0.2506910737
 H          3.7173902676       -1.9621306592        0.6018506090
 H          5.5505351676       -0.2864954984        0.6229129779
 H          5.0380276075        2.0911184563        0.1879744788
 H          2.6985731993        2.7825262130       -0.2693302456
  32
 Etot=  -51.4237497473 g norm=  0.00023266
 C         -5.1227293858       -0.4440818928        1.3467816193
 C         -4.2092987095        0.1759158173        0.3355237544
 C         -4.8743678270        0.7882014800       -0.8637113078
 C         -2.8894212381        0.1865993141        0.4979423427
 C         -1.9214237427        0.8227140258       -0.4641846912
 C         -0.5161177850        0.3052415492       -0.3133585514
 C         -0.2379273966       -1.0234509755       -0.3669062054
 O         -1.1599119692       -1.9740792685       -0.5552138026
 C          1.1397840101       -1.5669117137       -0.2335813634
 O          1.3516997515       -2.7685102653       -0.3050784144
 C          2.2073194120       -0.5803425797       -0.0162160456
 C          3.5206401910       -1.0177389928        0.1317211137
 C          4.5442448112       -0.1076195230        0.3385991704
 C          4.2627314798        1.2480815251        0.3981082233
 C          2.9581598924        1.6933515374        0.2510847144
 C          1.9222376798        0.7898564662        0.0438450150
 C          0.5405802229        1.2934728140       -0.1088383607
 O          0.2966347562        2.4974075276       -0.0656032657
 H         -5.7345162834       -1.2129494843        0.8769343926
 H         -5.7944135336        0.3110013439        1.7530792517
 H         -4.5638007614       -0.8897002224        2.1653530332
 H         -4.5921983848        0.2648940527       -1.7766682726
 H         -4.5767243595        1.8296311576       -0.9745940947
 H         -5.9549563212        0.7438194109       -0.7660996458
 H         -2.4531340957       -0.2309251082        1.3959848445
 H         -1.8877575356        1.9046307080       -0.2965143529
 H         -2.2595346186        0.6711094877       -1.4941144750
 H         -2.0598360742       -1.5982333565       -0.5780117223
 H          3.7139275994       -2.0787682280        0.0812417650
 H          5.5578835604       -0.4571467296        0.4532195091
 H          5.0565495491        1.9600517865        0.5592138322
 H          2.7172255067        2.7450766376        0.2935625703
  32
 Etot=  -51.4235755540 g norm=  0.00034994
 C         -5.0672068346       -0.4897220286        1.3595928900
 C         -4.2030800440        0.1638263110        0.3228563756
 C         -4.9569057594        0.7448228086       -0.8349046361
 C         -2.8809800185        0.2025597631        0.4541487725
 C         -1.9100525698        0.8455595902       -0.5033964375
 C         -0.5080187579        0.3194631311       -0.3444903801
 C         -0.2321021606       -1.0082223856       -0.4268960076
 O         -1.1522669676       -1.9515414192       -0.6551433021
 C          1.1420945541       -1.5582852261       -0.2824321053
 O          1.3524272827       -2.7584567886       -0.3771443405
 C          2.2083591000       -0.5797672213       -0.0257502305
 C          3.5186279309       -1.0234617917        0.1306819358
 C          4.5410051855       -0.1206123381        0.3726165982
 C          4.2615086051        1.2340692972        0.4593162416
 C          2.9600310191        1.6855442266        0.3044360179
 C          1.9254137633        0.7892837643        0.0622824606
 C          0.5470043281        1.2995272857       -0.0971762312
 O          0.3045704868        2.5023465686       -0.0245267172
 H         -4.4697768228       -0.9538801002        2.1394389260
 H         -5.6978351862       -1.2485140274        0.8992103504
 H         -5.7227864794        0.2488202799        1.8186000882
 H         -5.7715958473        1.3640621030       -0.4645708193
 H         -5.3984973269       -0.0522779389       -1.4323202891
 H         -4.3259618570        1.3549375931       -1.4725508732
 H         -2.4298974093       -0.2142902742        1.3461918489
 H         -1.8697579805        1.9248526660       -0.3224436422
 H         -2.2346738211        0.7010354544       -1.5377121491
 H         -2.0502494295       -1.5737049120       -0.6960917940
 H          3.7107386434       -2.0834685240        0.0587569667
 H          5.5523264829       -0.4749281926        0.4928609093
 H          5.0545519007        1.9404204240        0.6468344198
 H          2.7200998022        2.7364492384        0.3682614323
  32
 Etot=  -51.4237128887 g norm=  0.00025349
 C         -5.0389079271       -0.3712990235        1.4426881295
 C         -4.1661708489        0.1001952090        0.3177663297
 C         -4.8661532427        0.1905212240       -1.0040965973
 C         -2.8929637758        0.4232330202        0.5322275917
 C         -1.9062105104        0.9562272705       -0.4691057248
 C         -0.5186449104        0.4033527509       -0.2634668137
 C         -0.2928868840       -0.9313352002       -0.1476127842
 O         -1.2533205473       -1.8602667178       -0.1996537055
 C          1.0657350714       -1.5077665876        0.0372219119
 O          1.2300898482       -2.7158539478        0.1217019903
 C          2.1742024564       -0.5452819481        0.1081183709
 C          3.4727742015       -1.0123335254        0.2914308620
 C          4.5337192566       -0.1247702469        0.3655530046
 C          4.3047139744        1.2376445466        0.2561030784
 C          3.0152913421        1.7122480317        0.0720783840
 C          1.9422816400        0.8316662496       -0.0032153595
 C          0.5777756944        1.3666760681       -0.1976672455
 O          0.3794855092        2.5756497958       -0.2972329309
 H         -5.4034382826       -1.3775936420        1.2410194838
 H         -5.9062879938        0.2799024951        1.5379760573
 H         -4.5010274389       -0.3772083201        2.3867456302
 H         -5.5102966048        1.0690456844       -1.0131957504
 H         -5.4979672974       -0.6827186631       -1.1528812020
 H         -4.1777028383        0.2722214646       -1.8394520975
 H         -2.4996416563        0.3522794032        1.5392573235
 H         -1.8350754487        2.0443353122       -0.3698265743
 H         -2.2291735213        0.7472973373       -1.4919013839
 H         -2.1399201519       -1.4488175283       -0.2333236484
 H          3.6248843517       -2.0779690228        0.3744197340
 H          5.5356167918       -0.4970710013        0.5083284731
 H          5.1276887642        1.9322843190        0.3134043719
 H          2.8146802420        2.7696294856       -0.0157371243
  32
 Etot=  -51.4239818993 g norm=  0.00023662
 C         -4.5183457082        0.8883469634        1.6330332481
 C         -3.6702054389        0.8750713686        0.3975124917
 C         -3.6554707398        2.1563650567       -0.3853415016
 C         -3.0064659876       -0.2156213198        0.0310765242
 C         -2.1270445860       -0.3418443972       -1.1864893476
 C         -0.6865303798       -0.4562906135       -0.7528400462
 C         -0.1443311917       -1.6315290017       -0.3408123711
 O         -0.8001037418       -2.7985865476       -0.3073297699
 C          1.2652973080       -1.7551341158        0.1155193577
 O          1.7233182771       -2.8371360251        0.4529181520
 C          2.0557681848       -0.5167457075        0.1268994602
 C          3.3820302000       -0.5570382733        0.5480989929
 C          4.1468957056        0.5976436131        0.5681700531
 C          3.5906334098        1.8024970269        0.1686247335
 C          2.2710395851        1.8522784889       -0.2530211419
 C          1.4937836453        0.6999684060       -0.2794962526
 C          0.0916069931        0.7814903255       -0.7402270309
 O         -0.3914861454        1.8506863932       -1.1046025331
 H         -4.1479451555        1.6404077140        2.3285641487
 H         -4.5150837706       -0.0782298602        2.1298279983
 H         -5.5438315172        1.1499167467        1.3764786415
 H         -4.1109133582        2.9572564796        0.1900586361
 H         -4.2139793278        2.0431411119       -1.3138022905
 H         -2.6369776663        2.4467275970       -0.6379197936
 H         -3.0519525941       -1.0948457634        0.6606886666
 H         -2.2220593154        0.5443124796       -1.8115068922
 H         -2.4256530624       -1.2113868541       -1.7776593647
 H         -1.7103251602       -2.7144442969       -0.6398008724
 H          3.7917322010       -1.5079577281        0.8540918838
 H          5.1735273409        0.5555025886        0.8953626841
 H          4.1822350507        2.7040884612        0.1834811194
 H          1.8195743003        2.7806248973       -0.5701730108
  32
 Etot=  -51.4237275741 g norm=  0.00032030
 C         -5.0477351693       -0.4474405508        1.4673457910
 C         -4.1661567911        0.0418150091        0.3568879683
 C         -4.8532736037        0.1443376587       -0.9707634610
 C         -2.8964305249        0.3682388886        0.5868962843
 C         -1.9053375063        0.9189385060       -0.4002462884
 C         -0.5129086058        0.3807439082       -0.1893216995
 C         -0.2728911667       -0.9505953615       -0.0638653997
 O         -1.2228233917       -1.8906831460       -0.1083571876
 C          1.0918345215       -1.5106257962        0.1268719881
 O          1.2674736768       -2.7152403840        0.2342595977
 C          2.1921496990       -0.5373696498        0.1718541369
 C          3.4974720113       -0.9902683861        0.3424164712
 C          4.5512260638       -0.0923150609        0.3893628521
 C          4.3079776246        1.2665126215        0.2666094631
 C          3.0115203464        1.7271570424        0.0968930065
 C          1.9458187426        0.8359220896        0.0474940841
 C          0.5738176451        1.3558520894       -0.1344933142
 O          0.3619883484        2.5623539019       -0.2365346335
 H         -5.4006895102       -1.4552214568        1.2529556952
 H         -5.9222759656        0.1946207062        1.5578625298
 H         -4.5214394348       -0.4568377852        2.4178004907
 H         -5.4867304219       -0.7254381856       -1.1322493794
 H         -4.1562962468        0.2294604470       -1.7987213757
 H         -5.4937682428        1.0256385229       -0.9796182135
 H         -2.5121307598        0.2886037432        1.5967310286
 H         -1.8465716107        2.0069555689       -0.2923775943
 H         -2.2169310510        0.7153217744       -1.4278167878
 H         -2.1141526927       -1.4893943201       -0.1466217383
 H          3.6607168837       -2.0534267201        0.4358748705
 H          5.5585873072       -0.4536229536        0.5215283829
 H          5.1251901502        1.9692212840        0.3028395241
 H          2.7998168264        2.7815429866       -0.0004238704
  32
 Etot=  -51.4237397875 g norm=  0.00035088
 C         -5.0557057742       -0.7018587156        1.3692807948
 C         -4.1644635713       -0.0347739194        0.3682820222
 C         -4.8522460812        0.6005612220       -0.8055214422
 C         -2.8435458296       -0.0030542186        0.5180278323
 C         -1.8996207309        0.6816565786       -0.4347113792
 C         -0.4768048064        0.2123769122       -0.2920052894
 C         -0.1486589780       -1.1026785529       -0.3844868391
 O         -1.0328209187       -2.0816078768       -0.6064294110
 C          1.2482080138       -1.5976776624       -0.2613825553
 O          1.5060622658       -2.7873403219       -0.3713104522
 C          2.2764308502       -0.5793146828       -0.0047122738
 C          3.6044171796       -0.9716434795        0.1386115628
 C          4.5917246664       -0.0309016346        0.3817211820
 C          4.2589585864        1.3106490820        0.4826659713
 C          2.9394166376        1.7111394606        0.3405497556
 C          1.9395499032        0.7764979402        0.0973774850
 C          0.5407977384        1.2324930169       -0.0489224842
 O          0.2515749785        2.4244378994        0.0307098151
 H         -5.6557852443       -1.4699933450        0.8834058779
 H         -5.7390637196        0.0275257905        1.8020665004
 H         -4.4802963893       -1.1581850669        2.1703360484
 H         -4.5946097638        1.6561632789       -0.8714956796
 H         -5.9301293286        0.5109906308       -0.7126188788
 H         -4.5488268136        0.1285336387       -1.7390638497
 H         -2.3894240290       -0.4398662718        1.3976381595
 H         -1.9048664050        1.7612701943       -0.2499426852
 H         -2.2337684251        0.5349014406       -1.4667394810
 H         -1.9464287579       -1.7413356894       -0.6260056786
 H          3.8380296774       -2.0223696089        0.0545534699
 H          5.6171922901       -0.3456601848        0.4919430385
 H          5.0241480729        2.0463743383        0.6729946098
 H          2.6582932173        2.7509857861        0.4162598573
  32
 Etot=  -51.4237357508 g norm=  0.00070916
 C         -5.0208847161       -0.3940261786        1.4724352996
 C         -4.1501570687        0.0508027701        0.3349230499
 C         -4.8520016353        0.1069347292       -0.9879040302
 C         -2.8772374552        0.3818519771        0.5392669935
 C         -1.8953111410        0.8934107442       -0.4777698587
 C         -0.5000474124        0.3679045918       -0.2543084366
 C         -0.2546828144       -0.9574732301       -0.0838445185
 O         -1.2013603379       -1.9019126104       -0.0907972846
 C          1.1131602496       -1.5058869143        0.1182047003
 O          1.2942473614       -2.7057647091        0.2631726675
 C          2.2096775494       -0.5271622081        0.1281539385
 C          3.5174224526       -0.9689780471        0.3090542772
 C          4.5674327917       -0.0655084955        0.3255193416
 C          4.3179978967        1.2879044970        0.1621208374
 C          3.0191913175        1.7374605080       -0.0190019536
 C          1.9572921757        0.8404959028       -0.0387117017
 C          0.5829180767        1.3485483866       -0.2352104935
 O          0.3659837184        2.5500786929       -0.3777264751
 H         -5.8859451843        0.2617250658        1.5558843623
 H         -4.4806648080       -0.3810776693        2.4150798587
 H         -5.3888816157       -1.4034204208        1.2937103462
 H         -5.4992474196        0.9830035746       -1.0178743968
 H         -5.4811461532       -0.7718094751       -1.1150687952
 H         -4.1645742869        0.1708002329       -1.8257654648
 H         -2.4825066149        0.3387159585        1.5475456840
 H         -1.8388135355        1.9851538125       -0.4160386677
 H         -2.2139398529        0.6459435898       -1.4934477320
 H         -2.0946187133       -1.5062383880       -0.1385894368
 H          3.6854012860       -2.0280444282        0.4351485351
 H          5.5766601722       -0.4182741820        0.4661060733
 H          5.1322793711        1.9949661605        0.1751706973
 H          2.8027804741        2.7874449912       -0.1482246913
  32
 Etot=  -51.4239641323 g norm=  0.00067334
 C         -4.5196533175        0.4878329957       -1.8470451812
 C         -3.6595049667        0.7637400747       -0.6511894982
 C         -3.6550623564        2.1887341598       -0.1770564276
 C         -2.9755653405       -0.2079031551       -0.0575456008
 C         -2.0808062906       -0.0455219276        1.1444028651
 C         -0.6467571890       -0.2637407474        0.7301970763
 C         -0.1061901733       -1.5042862864        0.6145585517
 O         -0.7574354094       -2.6432947790        0.8809889252
 C          1.2987334604       -1.7362490298        0.1860891474
 O          1.7597722718       -2.8670535441        0.1314301655
 C          2.0797178556       -0.5399544487       -0.1563662335
 C          3.3978552195       -0.6835692046       -0.5804271716
 C          4.1530503455        0.4292505256       -0.9122601867
 C          3.5952523439        1.6948679323       -0.8241549369
 C          2.2842995446        1.8479499092       -0.4002648079
 C          1.5168443977        0.7391045450       -0.0625020299
 C          0.1241858751        0.9322634418        0.3942192968
 O         -0.3574336319        2.0582098663        0.4910381039
 H         -4.5005436172       -0.5644628575       -2.1179763076
 H         -4.1720726051        1.0743214354       -2.6966200518
 H         -5.5480340101        0.7802239609       -1.6401413591
 H         -4.1941137955        2.2800631109        0.7651973630
 H         -4.1356353553        2.8330973814       -0.9077000897
 H         -2.6374481807        2.5424418478       -0.0193050020
 H         -3.0138951781       -1.2073725297       -0.4717147896
 H         -2.3711260957       -0.7501141822        1.9279207373
 H         -2.1678359882        0.9634612515        1.5434830871
 H         -1.6642253663       -2.4815823972        1.1935179145
 H          3.8086000905       -1.6802573718       -0.6421675877
 H          5.1734309868        0.3069522916       -1.2388154751
 H          4.1790098919        2.5639726034       -1.0830444868
 H          1.8319939952        2.8253569330       -0.3222098521
  32
 Etot=  -51.4236551828 g norm=  0.00025048
 C         -5.1497564553       -0.6142438512       -0.9952330918
 C         -4.2014441861        0.0574597523       -0.0500632111
 C         -4.8062865471        0.5146730886        1.2454436498
 C         -2.9237507092        0.2485830366       -0.3719700662
 C         -1.9038700768        0.9628055125        0.4698956538
 C         -0.5138434111        0.3983843381        0.3285696633
 C         -0.2700539921       -0.9358182368        0.4079712856
 O         -1.2160637086       -1.8603241373        0.6065840101
 C          1.0946643314       -1.5158130087        0.2925525287
 O          1.2717655900       -2.7234520906        0.3566788562
 C          2.1935296628       -0.5576196785        0.1057188202
 C          3.5006651205       -1.0274136320        0.0111930579
 C          4.5530827312       -0.1435728931       -0.1621421012
 C          4.3067365098        1.2177778918       -0.2442478263
 C          3.0083099552        1.6949330565       -0.1541717447
 C          1.9439706082        0.8181618108        0.0218514768
 C          0.5697067606        1.3553943611        0.1151598921
 O          0.3532926857        2.5615783280        0.0193550187
 H         -4.6591836830       -0.8825566916       -1.9271498317
 H         -5.9834697786        0.0504651986       -1.2166602194
 H         -5.5582237193       -1.5159933883       -0.5409646154
 H         -4.1574742790        0.3053141256        2.0929954153
 H         -5.7613373631        0.0246620745        1.4121517711
 H         -4.9753906212        1.5905307882        1.2168086400
 H         -2.5667678508       -0.0710680051       -1.3430330361
 H         -2.1939496440        0.9452902710        1.5241577598
 H         -1.8531209142        2.0157418047        0.1727008044
 H         -2.1085939286       -1.4593401889        0.5892977284
 H          3.6664769699       -2.0922460751        0.0773922621
 H          5.5619899725       -0.5178116552       -0.2327908393
 H          5.1230564689        1.9094568595       -0.3790479555
 H          2.7938904461        2.7514234599       -0.2169917883
  32
 Etot=  -51.4237053300 g norm=  0.00029544
 C         -5.0979218060        0.1444945890        1.6082696442
 C         -4.1978422183        0.4756206281        0.4588569302
 C         -4.8703129216        0.9784064576       -0.7854399073
 C         -2.8787378337        0.3308378209        0.5341959413
 C         -1.9346787274        0.6716373934       -0.5898209462
 C         -0.5253595443        0.2132428129       -0.3322263184
 C         -0.2280245206       -1.0941325550       -0.1130436881
 O         -1.1302288695       -2.0816661564       -0.1165246049
 C          1.1548028666       -1.5749066615        0.1501585314
 O          1.3837383212       -2.7616829892        0.3313722226
 C          2.2050884533       -0.5471250378        0.1771062121
 C          3.5217217293       -0.9227066235        0.4295820641
 C          4.5287922410        0.0279196219        0.4612003354
 C          4.2276228339        1.3624561850        0.2397070103
 C          2.9197437956        1.7460012512       -0.0137458328
 C          1.9003200235        0.8014638898       -0.0473479712
 C          0.5151448280        1.2393979310       -0.3216183555
 O          0.2555673513        2.4218542149       -0.5344110306
 H         -4.5325839906       -0.2197550882        2.4615856172
 H         -5.8176673661       -0.6169712173        1.3114851643
 H         -5.6569724621        1.0289415576        1.9104070231
 H         -4.7163693107        0.2900097969       -1.6158070012
 H         -4.4561025458        1.9421612143       -1.0781037180
 H         -5.9385299864        1.0915565696       -0.6272857810
 H         -2.4217140970       -0.0043117532        1.4559106817
 H         -1.9030675299        1.7576779148       -0.7284580381
 H         -2.3005015526        0.2446589786       -1.5297781738
 H         -2.0342439004       -1.7484259167       -0.2566556930
 H          3.7309286871       -1.9682914269        0.5985778007
 H          5.5453567922       -0.2736277148        0.6579206893
 H          5.0082927122        2.1060196694        0.2642092980
 H          2.6631959112        2.7799421454       -0.1901241231
  32
 Etot=  -51.4236689920 g norm=  0.00027345
 C         -5.0359069779       -0.3559208962        1.5751471238
 C         -4.1785391392        0.1602154797        0.4583322438
 C         -4.9263701505        0.4754847423       -0.8014967007
 C         -2.8707733811        0.3375499037        0.6250719608
 C         -1.9038957581        0.8993521393       -0.3816595584
 C         -0.5087858063        0.3572811076       -0.2095086119
 C         -0.2624040988       -0.9780904488       -0.1686135293
 O         -1.2071741533       -1.9184161220       -0.2775625423
 C          1.1043555790       -1.5425957760       -0.0072504461
 O          1.2869932848       -2.7507655084        0.0149098636
 C          2.1974957459       -0.5683630369        0.1208118054
 C          3.5028338565       -1.0241396413        0.2840472771
 C          4.5493227390       -0.1253855877        0.4101079861
 C          4.2991736293        1.2372758380        0.3736187094
 C          3.0030285016        1.7008774922        0.2102109381
 C          1.9444754809        0.8089331798        0.0828128500
 C          0.5726689244        1.3324426491       -0.0892592487
 O          0.3565213883        2.5418461164       -0.1292144480
 H         -4.4550844636       -0.5204449614        2.4787510031
 H         -5.5081719145       -1.2940663933        1.2868028965
 H         -5.8286167703        0.3578077654        1.7934334621
 H         -5.7064718016       -0.2636063958       -0.9698858204
 H         -4.2794303410        0.5089765304       -1.6730009404
 H         -5.4064939056        1.4487640540       -0.7048142661
 H         -2.4314006804        0.1180944443        1.5905074566
 H         -1.8418147579        1.9864114402       -0.2648576813
 H         -2.2454169768        0.7070192035       -1.4023613162
 H         -2.0998373039       -1.5250831086       -0.3135760403
 H          3.6718553328       -2.0901335093        0.3101904826
 H          5.5565375418       -0.4890363751        0.5369557528
 H          5.1108878477        1.9407097103        0.4717557737
 H          2.7858915225        2.7581724592        0.1781405723
  32
 Etot=  -51.4237325910 g norm=  0.00036756
 C         -4.9982692212       -0.4756822340        1.5571433045
 C         -4.1353930790        0.0065960195        0.4291011666
 C         -4.8461135399        0.1064933161       -0.8861964822
 C         -2.8610207022        0.3305310225        0.6354763978
 C         -1.8851959579        0.8721383383       -0.3719990859
 C         -0.4869247214        0.3471301868       -0.1672148264
 C         -0.2363471901       -0.9805146582       -0.0240246888
 O         -1.1799895401       -1.9276201922       -0.0451694477
 C          1.1340393903       -1.5280531459        0.1625432176
 O          1.3194184038       -2.7296119232        0.2868042588
 C          2.2276545565       -0.5463837071        0.1829385570
 C          3.5376863845       -0.9875534523        0.3483035194
 C          4.5853432781       -0.0816674040        0.3724348505
 C          4.3312397696        1.2735200759        0.2321250393
 C          3.0300904641        1.7224761926        0.0673259224
 C          1.9704053794        0.8231257010        0.0403855977
 C          0.5931847386        1.3305943962       -0.1374434208
 O          0.3718042974        2.5338264642       -0.2565658548
 H         -4.4510638094       -0.4953425485        2.4956015582
 H         -5.3688493726       -1.4779908149        1.3467269793
 H         -5.8622991542        0.1773077032        1.6696892835
 H         -5.4963914497        0.9807124750       -0.8801943983
 H         -5.4729660748       -0.7694099477       -1.0404302978
 H         -4.1644646233        0.2029018237       -1.7255771851
 H         -2.4597913881        0.2552406492        1.6391125223
 H         -1.8330980324        1.9623018377       -0.2838859813
 H         -2.2065013847        0.6482231088       -1.3923915416
 H         -2.0747002906       -1.5339079040       -0.0819605078
 H          3.7091400567       -2.0480857086        0.4558016349
 H          5.5963805919       -0.4337499921        0.5013377244
 H          5.1436654239        1.9824346385        0.2515286639
 H          2.8099467439        2.7738398201       -0.0428284598
  32
 Etot=  -51.4236863313 g norm=  0.00040571
 C         -5.0731007133       -0.2758468143        1.4632299222
 C         -4.2026471086        0.1816483567        0.3307166553
 C         -4.9439085192        0.4674676676       -0.9396475069
 C         -2.8911853926        0.3336795956        0.4918500841
 C         -1.9131449955        0.8349660108       -0.5367975027
 C         -0.5141288836        0.3270635560       -0.3052721573
 C         -0.2487242019       -0.9987593008       -0.1737048060
 O         -1.1765977395       -1.9597136715       -0.2370938809
 C          1.1231836718       -1.5298676620        0.0467699323
 O          1.3222692681       -2.7306788452        0.1561870678
 C          2.2007954248       -0.5329589477        0.1196771019
 C          3.5109641377       -0.9573813134        0.3236945730
 C          4.5434244904       -0.0367638164        0.3975664793
 C          4.2740066071        1.3165954305        0.2685997112
 C          2.9727507441        1.7489218489        0.0647981201
 C          1.9282938432        0.8346951249       -0.0119351252
 C          0.5509525012        1.3247196911       -0.2319038121
 O          0.3174076064        2.5257436902       -0.3498372711
 H         -5.8416075781        0.4685837377        1.6645758749
 H         -4.4951022275       -0.4343326088        2.3695180577
 H         -5.5766963201       -1.2053538030        1.2017721993
 H         -4.2858791290        0.5326090812       -1.8007044940
 H         -5.4684755255        1.4180192931       -0.8466234380
 H         -5.6890860835       -0.3046367279       -1.1212458669
 H         -2.4572855219        0.1401640559        1.4652926170
 H         -1.8675468240        1.9284168601       -0.4989339103
 H         -2.2339644132        0.5628487131       -1.5463033610
 H         -2.0744325256       -1.5868921707       -0.3202083939
 H          3.6950076341       -2.0166998691        0.4218044128
 H          5.5546639562       -0.3762069214        0.5558722765
 H          5.0745984798        2.0368166013        0.3259622756
 H          2.7406351911        2.7983617244       -0.0388604846
  32
 Etot=  -51.4237316617 g norm=  0.00024563
 C         -5.0888710729       -0.6235173339       -1.0046877334
 C         -4.1532684563       -0.0420528744        0.0130121142
 C         -4.7699287543        0.1708664084        1.3622241382
 C         -2.8997670775        0.2686377950       -0.3098035514
 C         -1.8684553210        0.9123947527        0.5741070809
 C         -0.4801714335        0.3688996260        0.3502264601
 C         -0.2296279908       -0.9659687974        0.3178206356
 O         -1.1654203164       -1.9085938488        0.4720103335
 C          1.1330167668       -1.5270008931        0.1146839145
 O          1.3157142166       -2.7347355342        0.0749249022
 C          2.2224638244       -0.5507050948       -0.0270572716
 C          3.5279249423       -1.0038450246       -0.1957861208
 C          4.5715639875       -0.1028702968       -0.3299452834
 C          4.3177672037        1.2592917849       -0.2990870097
 C          3.0208263104        1.7201199825       -0.1335836740
 C          1.9655525075        0.8258730207        0.0046733236
 C          0.5930241521        1.3460707864        0.1816059013
 O          0.3701957619        2.5549136851        0.1904290397
 H         -4.6102896781       -0.7199810401       -1.9754277936
 H         -5.9656145641        0.0137380779       -1.1085909475
 H         -5.4329742082       -1.6059610785       -0.6846436716
 H         -4.0298689526        0.2975816952        2.1463260711
 H         -5.4108010256       -0.6703910524        1.6173552093
 H         -5.3910806115        1.0656163194        1.3402006883
 H         -2.5663196324        0.1038697193       -1.3274189038
 H         -2.1298218952        0.8027879597        1.6296290354
 H         -1.8273681496        1.9865807428        0.3652076754
 H         -2.0592475274       -1.5135804384        0.5199028379
 H          3.6994947277       -2.0695669018       -0.2178713592
 H          5.5792803271       -0.4644639915       -0.4586619270
 H          5.1270547567        1.9643851677       -0.4036504811
 H          2.8008656421        2.7769768885       -0.1070159754
  32
 Etot=  -51.4237413434 g norm=  0.00027206
 C         -4.9834200152       -0.4923436146        1.5401979871
 C         -4.1181173356       -0.0506453377        0.3976288318
 C         -4.8208401522       -0.0137839120       -0.9253187182
 C         -2.8483978054        0.2949541144        0.5969928584
 C         -1.8752833014        0.8070562527       -0.4281320587
 C         -0.4685617008        0.3178974515       -0.1947965070
 C         -0.1937022578       -0.9938701600        0.0277030271
 O         -1.1186943980       -1.9589170975        0.0629494464
 C          1.1860531612       -1.5030954321        0.2508559486
 O          1.3915570047       -2.6886621680        0.4646308884
 C          2.2634079282       -0.5049062398        0.1952610814
 C          3.5818883292       -0.9129072398        0.3771921091
 C          4.6145855877        0.0090551583        0.3281764677
 C          4.3368477304        1.3470550230        0.0973308225
 C          3.0268092719        1.7631751414       -0.0827917103
 C          1.9819395056        0.8474798099       -0.0365665149
 C          0.5944903546        1.3198948874       -0.2304204867
 O          0.3508973060        2.5103221170       -0.4162184362
 H         -5.3353615996       -1.5096732504        1.3750074680
 H         -5.8590165208        0.1506789835        1.6131555040
 H         -4.4448668973       -0.4577139773        2.4832597723
 H         -5.4624827577        0.8655503345       -0.9700362690
 H         -5.4549172135       -0.8908736048       -1.0366501022
 H         -4.1332698147        0.0313506663       -1.7642419880
 H         -2.4524280008        0.2670760005        1.6051119252
 H         -1.8427411191        1.9009452984       -0.3892768996
 H         -2.1870774028        0.5330525009       -1.4392553838
 H         -2.0210430681       -1.5861693818       -0.0003319735
 H          3.7720298711       -1.9605289719        0.5564640884
 H          5.6325152223       -0.3175822978        0.4692080522
 H          5.1377474748        2.0681916134        0.0579109647
 H          2.7881984013        2.8009685888       -0.2616156642
  32
 Etot=  -51.4236958469 g norm=  0.00026479
 C         -5.0833090813       -0.1120531930        1.5274294133
 C         -4.1832323727        0.4166948095        0.4545226289
 C         -4.8541691495        1.1496418650       -0.6699891081
 C         -2.8657288115        0.2451549524        0.4940320033
 C         -1.9211748538        0.7765653379       -0.5530410669
 C         -0.5140750509        0.2724615331       -0.3841190731
 C         -0.2250937291       -1.0549273552       -0.3957038018
 O         -1.1343564527       -2.0206177161       -0.5687012956
 C          1.1543277934       -1.5831700855       -0.2209690056
 O          1.3743513832       -2.7852060275       -0.2415843377
 C          2.2123439305       -0.5821027378       -0.0251092876
 C          3.5272059618       -1.0041743580        0.1517278733
 C          4.5418409034       -0.0796936258        0.3381586977
 C          4.2498688269        1.2751011064        0.3483705613
 C          2.9437410800        1.7050490010        0.1724283156
 C          1.9168238839        0.7870384246       -0.0146887888
 C          0.5335885566        1.2746401656       -0.2002266839
 O          0.2814924350        2.4776530386       -0.2021595353
 H         -5.8249304622       -0.7826941917        1.0954273108
 H         -5.6165201912        0.7086981374        2.0052445906
 H         -4.5205851686       -0.6502574232        2.2855556687
 H         -4.4017037754        2.1300832091       -0.8088330288
 H         -5.9130207392        1.2791802914       -0.4674624567
 H         -4.7478243002        0.6024200684       -1.6062464603
 H         -2.4108721664       -0.2625725042        1.3340396508
 H         -1.8836395225        1.8697013086       -0.4964124175
 H         -2.2909847552        0.5252909314       -1.5530153955
 H         -2.0358071977       -1.6610550532       -0.6485560397
 H          3.7289133806       -2.0647707375        0.1396776282
 H          5.5568417956       -0.4172610192        0.4747449352
 H          5.0366403597        1.9984213665        0.4927971088
 H          2.6943946259        2.7556652175        0.1762012837
  32
 Etot=  -51.4237238934 g norm=  0.00028242
 C         -5.0164239360       -0.6638978240        1.3405102837
 C         -4.1375344725       -0.0749477113        0.2773869256
 C         -4.8251326262        0.1397403965       -1.0366561801
 C         -2.8703640831        0.2404465996        0.5353541286
 C         -1.8883867099        0.8902816643       -0.3993719856
 C         -0.4867903650        0.3600205592       -0.2355825207
 C         -0.2230198756       -0.9727044327       -0.2322355948
 O         -1.1564932662       -1.9211570913       -0.3632882574
 C          1.1518750204       -1.5235485360       -0.0954587670
 O          1.3499747498       -2.7294334512       -0.1084015662
 C          2.2337515366       -0.5391831239        0.0484566035
 C          3.5462673524       -0.9824962084        0.1856465887
 C          4.5828449001       -0.0741326840        0.3242566559
 C          4.3152314035        1.2856839053        0.3265922428
 C          3.0114859262        1.7368076469        0.1908848800
 C          1.9627936727        0.8351200742        0.0508917836
 C          0.5823872679        1.3452409660       -0.0909814403
 O          0.3495181600        2.5521370734       -0.0867686890
 H         -5.8887625231       -0.0305294598        1.4934492639
 H         -4.4870824769       -0.7623301157        2.2842246004
 H         -5.3734233461       -1.6463748192        1.0349688030
 H         -5.4542354947        1.0271586305       -0.9760346135
 H         -5.4690439169       -0.7069749139       -1.2646505125
 H         -4.1276946000        0.2804004066       -1.8565731239
 H         -2.4838679651        0.0745426188        1.5336342194
 H         -1.8481849062        1.9657656022       -0.1975662050
 H         -2.1975663195        0.7715022483       -1.4409298674
 H         -2.0544965179       -1.5335825829       -0.3675741529
 H          3.7287759798       -2.0466033200        0.1803541081
 H          5.5959244473       -0.4281440652        0.4298705926
 H          5.1191002422        1.9965045281        0.4343096872
 H          2.7808846329        2.7917408261        0.1895387843
  32
 Etot=  -51.4236401373 g norm=  0.00045780
 C         -5.0034372594       -0.1549738377       -1.5933854301
 C         -4.1372346615        0.1106714388       -0.3978394392
 C         -4.8298507578       -0.0941258612        0.9151308974
 C         -2.8767184332        0.5121449324       -0.5456913824
 C         -1.8967837185        0.8665892671        0.5382683172
 C         -0.5055319022        0.3629986348        0.2471290838
 C         -0.2742554451       -0.9318912739       -0.0928226145
 O         -1.2331084508       -1.8570737505       -0.2074957102
 C          1.0874394742       -1.4654346341       -0.3626803565
 O          1.2562681523       -2.6401378605       -0.6544296103
 C          2.1938194769       -0.5042853997       -0.2521768517
 C          3.4963246219       -0.9329247233       -0.4925058538
 C          4.5559566517       -0.0458280969       -0.3966229911
 C          4.3214147196        1.2779687243       -0.0600990546
 C          3.0277707250        1.7143700278        0.1806853919
 C          1.9561864530        0.8335460752        0.0885767773
 C          0.5874085788        1.3270017351        0.3515463434
 O          0.3832309241        2.5025924850        0.6468368015
 H         -5.8911095114        0.4743014460       -1.5566172590
 H         -5.3354690491       -1.1922053964       -1.5958490005
 H         -4.4728281268        0.0440401053       -2.5204406753
 H         -5.5348737826        0.7191288704        1.0832002114
 H         -4.1422906768       -0.1202635235        1.7545598331
 H         -5.3974029912       -1.0225058991        0.8965078102
 H         -2.4893772611        0.6536526829       -1.5474943763
 H         -2.2221330398        0.4814192791        1.5076421392
 H         -1.8300136235        1.9555793744        0.6288046639
 H         -2.1204429067       -1.4549687613       -0.1170130224
 H          3.6525241769       -1.9688358320       -0.7537339616
 H          5.5609866174       -0.3882966423       -0.5846995076
 H          5.1432402434        1.9722147417        0.0150431853
 H          2.8229206652        2.7413550894        0.4440559351
  32
 Etot=  -51.4237346281 g norm=  0.00064343
 C         -5.0131553284       -0.3206084428        1.6098006031
 C         -4.1501693523        0.1120437702        0.4618920432
 C         -4.8641133006        0.1685758197       -0.8542825387
 C         -2.8721276964        0.4315931436        0.6522182152
 C         -1.8947285649        0.9267106800       -0.3772000096
 C         -0.5030770188        0.3869487890       -0.1652626307
 C         -0.2712611150       -0.9390938137        0.0187377955
 O         -1.2291694199       -1.8719946590        0.0355998131
 C          1.0923262393       -1.5011547599        0.2116863131
 O          1.2608296270       -2.7008694432        0.3726082959
 C          2.2007382806       -0.5362401304        0.1911410292
 C          3.5055197959       -0.9920209947        0.3581564274
 C          4.5667608613       -0.1017838459        0.3454925940
 C          4.3315614429        1.2522755632        0.1669009084
 C          3.0357398181        1.7157033534       -0.0000496670
 C          1.9626626558        0.8320558812        0.0089670011
 C          0.5917060404        1.3544820246       -0.1737288719
 O          0.3871641838        2.5567417632       -0.3277622527
 H         -5.3854460740       -1.3302688935        1.4419414958
 H         -5.8758763154        0.3380147222        1.6950243927
 H         -4.4654812048       -0.3019824867        2.5480284052
 H         -5.5018303427        1.0514384468       -0.8819834507
 H         -5.5037568532       -0.7039045235       -0.9703927018
 H         -4.1841107074        0.2207643069       -1.6989813765
 H         -2.4683899834        0.3898415337        1.6567657776
 H         -1.8256308371        2.0181039927       -0.3228769871
 H         -2.2259078496        0.6767776914       -1.3882617115
 H         -2.1180791062       -1.4652990734       -0.0044685380
 H          3.6623501183       -2.0512966168        0.4963624422
 H          5.5735762835       -0.4652686369        0.4757158647
 H          5.1546374637        1.9490386747        0.1569663999
 H          2.8302999846        2.7664512850       -0.1404944811
  32
 Etot=  -51.4237436931 g norm=  0.00024225
 C         -5.1369861911       -0.3143611146        1.3700828453
 C         -4.2147341542        0.2998055471        0.3634881449
 C         -4.8710694781        0.9218594902       -0.8354186897
 C         -2.8951510912        0.2984501144        0.5308447546
 C         -1.9175225386        0.9307938276       -0.4232848174
 C         -0.5236679146        0.3768020658       -0.2959979157
 C         -0.2785923938       -0.9577433648       -0.3642689628
 O         -1.2262264164       -1.8843140951       -0.5456054127
 C          1.0876170962       -1.5350358673       -0.2574991367
 O          1.2688734428       -2.7410741957       -0.3379123715
 C          2.1828545507       -0.5757044930       -0.0564154090
 C          3.4883131834       -1.0449724716        0.0607740240
 C          4.5374722654       -0.1606083090        0.2506371382
 C          4.2897336857        1.2010038379        0.3242720229
 C          2.9932149165        1.6778833010        0.2087598662
 C          1.9319686932        0.8004241069        0.0182994104
 C          0.5597355659        1.3376302472       -0.1008782659
 O          0.3448409262        2.5462046606       -0.0370562544
 H         -4.5852767381       -0.7607897040        2.1929857217
 H         -5.7497591857       -1.0812095164        0.8983725708
 H         -5.8074928762        0.4446457331        1.7705051827
 H         -4.5689363265        0.4179876613       -1.7528293532
 H         -4.5861648306        1.9688010935       -0.9248483375
 H         -5.9520604365        0.8617342624       -0.7542920882
 H         -2.4660359184       -0.1258679812        1.4291726142
 H         -1.8559157611        2.0074963336       -0.2315945130
 H         -2.2654910902        0.8112810777       -1.4540553846
 H         -2.1167178815       -1.4853973357       -0.5495799393
 H          3.6553895263       -2.1098672520       -0.0006896366
 H          5.5448265001       -0.5346287104        0.3409762917
 H          5.1035763924        1.8930676282        0.4716727033
 H          2.7778644439        2.7346362863        0.2630695459
  32
 Etot=  -51.4239016968 g norm=  0.00019863
 C         -4.3083621579        1.3761348542        1.8499510783
 C         -3.5694820098        1.1016028796        0.5753909983
 C         -3.6349319869        2.1920632884       -0.4551038463
 C         -2.9237820572       -0.0439669575        0.3881640717
 C         -2.1477369240       -0.4255950864       -0.8463114312
 C         -0.6843372935       -0.5116850806       -0.4930797386
 C         -0.1273261087       -1.6283402900        0.0432042277
 O         -0.7837274334       -2.7736993117        0.2698343257
 C          1.3050808655       -1.7063484912        0.4352405393
 O          1.7797497520       -2.7435500025        0.8753246197
 C          2.0950592000       -0.4796081505        0.2621175994
 C          3.4344794702       -0.4702222813        0.6415312840
 C          4.1987158884        0.6748510104        0.4884437927
 C          3.6298272463        1.8198264648       -0.0464625951
 C          2.2975383791        1.8194433844       -0.4291177505
 C          1.5199689374        0.6767650793       -0.2795142674
 C          0.1020062511        0.7046899535       -0.6954913508
 O         -0.3890349710        1.7139475983       -1.1947280941
 H         -3.8907419570        2.2559567519        2.3377782634
 H         -4.2473160286        0.5349474199        2.5353323452
 H         -5.3560163329        1.5811808417        1.6350977872
 H         -2.6383272242        2.4423018492       -0.8157798148
 H         -4.0845868168        3.0863451341       -0.0334704226
 H         -4.2340876886        1.8779034163       -1.3087387711
 H         -2.9015581385       -0.7738380856        1.1872996388
 H         -2.2677174088        0.3358885176       -1.6147563694
 H         -2.5141805740       -1.3752162586       -1.2437505650
 H         -1.7106391262       -2.7313714758       -0.0223727701
 H          3.8543758148       -1.3748609135        1.0550436090
 H          5.2351410462        0.6718975460        0.7861335113
 H          4.2213666256        2.7134193338       -0.1673631544
 H          1.8352715629        2.7004786080       -0.8486435421
  32
 Etot=  -51.4236616602 g norm=  0.00034580
 C         -5.1374823295       -0.3733650916        1.2437723386
 C         -4.2178856793        0.2398097995        0.2321161644
 C         -4.8820482457        0.7138219898       -1.0269266532
 C         -2.9153155417        0.3692475789        0.4729063587
 C         -1.9115180967        1.0190435703       -0.4388664180
 C         -0.5272785919        0.4420598513       -0.2964183417
 C         -0.3031324149       -0.8969892556       -0.3471492622
 O         -1.2641651076       -1.8111146167       -0.5200202470
 C          1.0539387809       -1.4939732431       -0.2288339698
 O          1.2163539681       -2.7036328656       -0.2919573833
 C          2.1639777858       -0.5489971302       -0.0410386507
 C          3.4622710278       -1.0365740347        0.0808086121
 C          4.5251430318       -0.1657871177        0.2569971442
 C          4.2983750469        1.2003270616        0.3124600752
 C          3.0089597062        1.6953298341        0.1930647698
 C          1.9342078180        0.8316481503        0.0159707161
 C          0.5699533292        1.3880304361       -0.1065791034
 O          0.3728140212        2.6000948058       -0.0514255168
 H         -5.6094667577       -1.2645499759        0.8320403705
 H         -5.9280856427        0.3303162849        1.4993987982
 H         -4.6052637593       -0.6465576843        2.1508463634
 H         -5.8337966664        0.2088011324       -1.1673545900
 H         -4.2639758889        0.5418787672       -1.9049392082
 H         -5.0724540686        1.7846232275       -0.9628564048
 H         -2.5181492065        0.0420180087        1.4257016184
 H         -1.8397431652        2.0870811029       -0.2079667202
 H         -2.2306326285        0.9412649625       -1.4821463936
 H         -2.1497618436       -1.3976397813       -0.5166845981
 H          3.6128814736       -2.1046892665        0.0344653195
 H          5.5269375555       -0.5538398034        0.3500388070
 H          5.1229402969        1.8819302940        0.4485054438
 H          2.8098309689        2.7558386407        0.2343416078
  32
 Etot=  -51.4238733356 g norm=  0.00066094
 C         -4.3989254235        1.2082403429        1.8282730616
 C         -3.6414110060        1.0005872943        0.5521510684
 C         -3.7327231726        2.1229290691       -0.4415163429
 C         -2.9587478949       -0.1171045769        0.3312094847
 C         -2.1623512834       -0.4311709834       -0.9093284500
 C         -0.7026209942       -0.5149869949       -0.5426355071
 C         -0.1309753671       -1.6540523066       -0.0734125021
 O         -0.7686115532       -2.8226032221        0.0729008690
 C          1.2995488671       -1.7330025154        0.3255514621
 O          1.7903748701       -2.7895938931        0.6961116407
 C          2.0672280981       -0.4827151404        0.2464099471
 C          3.4022273972       -0.4748271470        0.6410501578
 C          4.1443780212        0.6932072246        0.5807009135
 C          3.5579030232        1.8626533147        0.1229608338
 C          2.2302560770        1.8635193751       -0.2756070907
 C          1.4747103613        0.6979690767       -0.2186553061
 C          0.0618714063        0.7269813916       -0.6521143996
 O         -0.4425849185        1.7577427935       -1.0900153667
 H         -5.4530315461        1.3759869028        1.6119417627
 H         -4.0207455191        2.0904678796        2.3431764143
 H         -4.3072657049        0.3512167123        2.4902326573
 H         -4.3066724561        1.8170011904       -1.3153257014
 H         -2.7404340055        2.4222631671       -0.7755776463
 H         -4.2217986955        2.9846774030        0.0031244803
 H         -2.9214549961       -0.8752462463        1.1032261192
 H         -2.2827793212        0.3639867419       -1.6427766874
 H         -2.5109754284       -1.3657562923       -1.3555125374
 H         -1.6945622881       -2.7767619298       -0.2219757811
 H          3.8359748392       -1.3986800836        0.9937365921
 H          5.1773988901        0.6888476271        0.8899321102
 H          4.1320190590        2.7744251732        0.0748678671
 H          1.7551167610        2.7629246632       -0.6376425763
  32
 Etot=  -51.4237720220 g norm=  0.00021480
 C         -5.1323871271       -0.2097649740        1.4244010618
 C         -4.2153240075        0.2596572001        0.3383319756
 C         -4.8765364193        0.7191023342       -0.9292520369
 C         -2.8945680989        0.2718537813        0.4930970496
 C         -1.9251565618        0.7589865172       -0.5509994018
 C         -0.5194104816        0.2717856187       -0.3239580651
 C         -0.2387513190       -1.0485873492       -0.1702820261
 O         -1.1572728570       -2.0200302006       -0.2113416924
 C          1.1387772420       -1.5608346396        0.0568504289
 O          1.3495237852       -2.7561444866        0.2005451451
 C          2.2072613836       -0.5524593411        0.0968529674
 C          3.5230310623       -0.9599441631        0.2988743284
 C          4.5477039302       -0.0286646074        0.3388179539
 C          4.2646572850        1.3184570554        0.1779628438
 C          2.9573927113        1.7340315252       -0.0223081365
 C          1.9205797094        0.8090474621       -0.0650709890
 C          0.5362326625        1.2811382334       -0.2809384237
 O          0.2896276264        2.4770998675       -0.4216396754
 H         -4.5765105896       -0.5418120958        2.2971914086
 H         -5.7477390303       -1.0329036258        1.0636465854
 H         -5.8004024649        0.5973419656        1.7220725859
 H         -5.9570418474        0.7074856688       -0.8235789222
 H         -4.6078377768        0.0748721277       -1.7655308567
 H         -4.5611389146        1.7309342565       -1.1779961881
 H         -2.4586366800       -0.0294823859        1.4366029153
 H         -1.8930888616        1.8539160187       -0.5467379029
 H         -2.2620628344        0.4563264876       -1.5476138074
 H         -2.0584398067       -1.6576133648       -0.3007637871
 H          3.7177319411       -2.0149329660        0.4204810616
 H          5.5635628657       -0.3550268587        0.4947453073
 H          5.0592355078        2.0469358469        0.2083193224
 H          2.7148668513        2.7784262756       -0.1501684919
  32
 Etot=  -51.4236942885 g norm=  0.00034870
 C         -5.0890552688       -0.6314144718       -0.9922473220
 C         -4.1715967576        0.0202997331       -0.0013732023
 C         -4.8303040000        0.4158078603        1.2857119519
 C         -2.8919804815        0.2398044657       -0.2936096558
 C         -1.8772952803        0.9323749276        0.5736134873
 C         -0.4854165390        0.3827557784        0.3959250324
 C         -0.2286041832       -0.9491293598        0.4722396715
 O         -1.1609103363       -1.8795598795        0.7039037125
 C          1.1366597357       -1.5185834763        0.3168350594
 O          1.3286793865       -2.7227993131        0.3981641310
 C          2.2170534197       -0.5542151877        0.0659585410
 C          3.5208193188       -1.0158956348       -0.0930323160
 C          4.5559369084       -0.1266258755       -0.3310317811
 C          4.2956453529        1.2322226366       -0.4117820299
 C          3.0006472254        1.7015151932       -0.2551565227
 C          1.9534268063        0.8191048864       -0.0163101307
 C          0.5820979496        1.3479597468        0.1437171877
 O          0.3549990924        2.5535945142        0.0671128181
 H         -4.5802459555       -0.8362531354       -1.9301794661
 H         -5.9411881835        0.0165602850       -1.1903454413
 H         -5.4738999933       -1.5678872155       -0.5909512045
 H         -5.3190902811        1.3817675916        1.1622146906
 H         -4.1232957781        0.5038487662        2.1055160662
 H         -5.5928414480       -0.3109825383        1.5560532031
 H         -2.5208311573       -0.0472583673       -1.2698980975
 H         -2.1574196524        0.8720016407        1.6287044241
 H         -1.8369341913        1.9955853440        0.3145279645
 H         -2.0558381589       -1.4869422259        0.7212511595
 H          3.6976274931       -2.0788723003       -0.0258168419
 H          5.5621669288       -0.4947566957       -0.4527067620
 H          5.0984662364        1.9281849733       -0.5968543958
 H          2.7757550699        2.7560383173       -0.3147736723
  32
 Etot=  -51.4239678967 g norm=  0.00043299
 C         -4.5593603701        0.6732467297        1.7132389242
 C         -3.7144583097        0.7525166769        0.4779919752
 C         -3.7248781974        2.0800299069       -0.2239393804
 C         -3.0313437026       -0.3008191318        0.0439662807
 C         -2.1500013297       -0.3350400491       -1.1783095416
 C         -0.7090595186       -0.4454239344       -0.7450984102
 C         -0.1403986123       -1.6327682251       -0.4111556392
 O         -0.7661559639       -2.8154224145       -0.4644978759
 C          1.2697303192       -1.7530768161        0.0448574630
 O          1.7580444916       -2.8458547581        0.2935632316
 C          2.0219125631       -0.4971645840        0.1694066507
 C          3.3394478848       -0.5315347512        0.6176445699
 C          4.0682423789        0.6397150375        0.7433305169
 C          3.4851086555        1.8552113528        0.4217160110
 C          2.1742903258        1.8991686581       -0.0270186103
 C          1.4326071023        0.7305868365       -0.1573803529
 C          0.0378592695        0.8070831335       -0.6404514525
 O         -0.4659027594        1.8856921490       -0.9439078950
 H         -5.5902495392        0.9306824150        1.4750740206
 H         -4.2009831953        1.3878034268        2.4532738258
 H         -4.5365981411       -0.3221065331        2.1491881043
 H         -4.2781043992        2.0128801263       -1.1599881984
 H         -2.7119277377        2.4068039315       -0.4539823931
 H         -4.1986229820        2.8342603578        0.3981039944
 H         -3.0584342559       -1.2177475676        0.6182451202
 H         -2.2625615023        0.5854100199       -1.7484672370
 H         -2.4296114962       -1.1731576032       -1.8216709450
 H         -1.6761644152       -2.7321828191       -0.7974437651
 H          3.7711663492       -1.4907410404        0.8610424347
 H          5.0883261293        0.6020030744        1.0909556672
 H          4.0489526386        2.7694777981        0.5179373994
 H          1.7019391358        2.8352578158       -0.2852453197
  32
 Etot=  -51.4239552383 g norm=  0.00027901
 C         -4.4966940640        0.3509778555       -1.8863444485
 C         -3.6092532896        0.7454953040       -0.7447160700
 C         -3.5351364658        2.2198941407       -0.4691462346
 C         -2.9635258383       -0.1684171094       -0.0287723965
 C         -2.0484279673        0.1122099405        1.1355675578
 C         -0.6230306590       -0.1764172519        0.7330251220
 C         -0.1158548326       -1.4362687235        0.7156589799
 O         -0.7924774533       -2.5310402604        1.0852586078
 C          1.2744438872       -1.7419742087        0.2860257510
 O          1.6996287266       -2.8879562773        0.3045165266
 C          2.0880638967       -0.5972966142       -0.1455901244
 C          3.3980373696       -0.8102433499       -0.5659037841
 C          4.1852713733        0.2537884740       -0.9744383254
 C          3.6681537077        1.5396067614       -0.9668705951
 C          2.3645659237        1.7612692165       -0.5507870575
 C          1.5648191969        0.7017153539       -0.1377950708
 C          0.1785349420        0.9674338951        0.3010346500
 O         -0.2732331482        2.1099331946        0.3056000457
 H         -4.1249709512        0.7865702427       -2.8129061886
 H         -5.5036767159        0.7309114501       -1.7219320427
 H         -4.5423225393       -0.7285233563       -2.0021015181
 H         -4.0841073679        2.4657828746        0.4390949844
 H         -3.9700389606        2.7815242809       -1.2910203755
 H         -2.5038206308        2.5424070153       -0.3366844785
 H         -3.0532496167       -1.2111207737       -0.3050004924
 H         -2.3403524181       -0.4940160243        1.9967445150
 H         -2.1132104322        1.1609746291        1.4198840679
 H         -1.6855571695       -2.3172457880        1.4052161820
 H          3.7778567546       -1.8209503682       -0.5610198327
 H          5.1995911858        0.0784370819       -1.2956889209
 H          4.2780266402        2.3710633640       -1.2825976020
 H          1.9427849271        2.7552199000       -0.5371449975
  32
 Etot=  -51.4237199760 g norm=  0.00026428
 C         -5.0102941211       -0.3311815083       -1.5316265046
 C         -4.1262780130       -0.0206011449       -0.3608467001
 C         -4.8156720035       -0.0875283919        0.9681474999
 C         -2.8490509621        0.3104397380       -0.5357117258
 C         -1.8659823361        0.7023578714        0.5322995318
 C         -0.4586613545        0.2557029839        0.2301566827
 C         -0.1767105327       -1.0214935961       -0.1370841426
 O         -1.0956406018       -1.9838712833       -0.2697317334
 C          1.2045167094       -1.4933320808       -0.4232295267
 O          1.4168771907       -2.6488714872       -0.7595919228
 C          2.2751324879       -0.4984322828       -0.2691616432
 C          3.5951439281       -0.8749962513       -0.5009680739
 C          4.6219299420        0.0440308265       -0.3597795420
 C          4.3364691814        1.3483833752        0.0116345583
 C          3.0247720969        1.7335702991        0.2416240233
 C          1.9860112098        0.8197315133        0.1061256205
 C          0.5970053704        1.2575964919        0.3608058377
 O          0.3465119773        2.4196994685        0.6734853771
 H         -5.3791659797       -1.3539489002       -1.4650399113
 H         -4.4807195804       -0.2114081300       -2.4728597477
 H         -5.8746143828        0.3309703533       -1.5290792835
 H         -5.3627632755        0.8382567255        1.1401717838
 H         -4.1220191338       -0.2214913068        1.7927354747
 H         -5.5340664940       -0.9036448082        0.9775310218
 H         -2.4570694856        0.3698184508       -1.5440122612
 H         -2.1662317167        0.3052245906        1.5057029456
 H         -1.8417247488        1.7931155439        0.6266569822
 H         -1.9993475631       -1.6288568074       -0.1536916319
 H          3.7910708331       -1.8968391596       -0.7894777876
 H          5.6411395501       -0.2584317089       -0.5399369915
 H          5.1327100701        2.0672518159        0.1224011477
 H          2.7804313881        2.7447021650        0.5314511696
  32
 Etot=  -51.4237554694 g norm=  0.00033859
 C         -5.1389418723       -0.3416241504        1.3758101883
 C         -4.2170694348        0.2184070390        0.3375052639
 C         -4.8715695454        0.7327806459       -0.9124739118
 C         -2.9008145550        0.2648386976        0.5231199306
 C         -1.9233270929        0.8535927043       -0.4582733861
 C         -0.5213436152        0.3347379477       -0.2810564396
 C         -0.2498883772       -0.9962842085       -0.2605447961
 O         -1.1755663394       -1.9527845360       -0.3929974876
 C          1.1255883306       -1.5382039534       -0.0990206781
 O          1.3301396248       -2.7431874941       -0.0950482150
 C          2.2002462852       -0.5465748257        0.0488718716
 C          3.5131164115       -0.9814070663        0.2080191048
 C          4.5430761610       -0.0660822978        0.3502252519
 C          4.2683804863        1.2922248188        0.3345458344
 C          2.9643088491        1.7348886441        0.1761047775
 C          1.9222207424        0.8261794726        0.0320726593
 C          0.5415078794        1.3271415426       -0.1362894080
 O          0.3033561067        2.5328230801       -0.1550394937
 H         -5.7238933529       -1.1592141907        0.9567646536
 H         -5.8353102066        0.4277500091        1.7066249751
 H         -4.5888318175       -0.7078250528        2.2386038106
 H         -4.6420522117        1.7877434998       -1.0544340107
 H         -5.9497761258        0.6171187680       -0.8551692088
 H         -4.5159142479        0.1968867888       -1.7916978212
 H         -2.4756512307       -0.0823625080        1.4557836795
 H         -1.8828906658        1.9410707457       -0.3330755250
 H         -2.2570941005        0.6652367610       -1.4832026228
 H         -2.0746919545       -1.5767280520       -0.4366315109
 H          3.7012908373       -2.0445466116        0.2161430538
 H          5.5565035944       -0.4135284026        0.4727498586
 H          5.0670490773        2.0083967900        0.4452217571
 H          2.7281905043        2.7884911718        0.1612711714
  32
 Etot=  -51.4237612894 g norm=  0.00048025
 C         -5.1497371097       -0.2701752554        1.3279159004
 C         -4.2237758078        0.2951791192        0.2963510144
 C         -4.8749782858        0.8560458884       -0.9351851248
 C         -2.9051038729        0.3035813020        0.4690321785
 C         -1.9242526755        0.8883102050       -0.5121286830
 C         -0.5254781978        0.3617244922       -0.3333880506
 C         -0.2618218199       -0.9709484133       -0.3163207800
 O         -1.1927087243       -1.9208739317       -0.4594859647
 C          1.1087385111       -1.5216085526       -0.1442839621
 O          1.3057821341       -2.7278264735       -0.1395324369
 C          2.1880331192       -0.5367312161        0.0148337092
 C          3.4965243645       -0.9798520725        0.1869053207
 C          4.5311271246       -0.0710613187        0.3371157040
 C          4.2656047256        1.2889874715        0.3157927181
 C          2.9658046354        1.7399035428        0.1455265959
 C          1.9189865139        0.8377917906       -0.0053111925
 C          0.5425012269        1.3475033116       -0.1820090039
 O          0.3118674969        2.5546947227       -0.2014363192
 H         -5.8220097258        0.5069062515        1.6891841081
 H         -4.6005736313       -0.6761668277        2.1732624995
 H         -5.7601412876       -1.0593959357        0.8911037641
 H         -4.5789138945        1.8931855212       -1.0835770914
 H         -5.9565440847        0.8122558492       -0.8499474102
 H         -4.5793386498        0.2978917644       -1.8228325401
 H         -2.4795297525       -0.0766049509        1.3884014018
 H         -1.8781692726        1.9756082692       -0.3871681851
 H         -2.2594519543        0.7016143260       -1.5371362661
 H         -2.0882607208       -1.5376627577       -0.5116825961
 H          3.6775488749       -2.0441709996        0.1988628260
 H          5.5410498125       -0.4249115102        0.4699817281
 H          5.0680216421        2.0001695437        0.4315629585
 H          2.7368824680        2.7949954128        0.1262180711
  32
 Etot=  -51.4249756868 g norm=  0.00021050
 C         -4.6302897683        0.0258008996        1.5129124703
 C         -3.4285215315        0.3880015475        0.6955229501
 C         -2.4534817561        1.3021861416        1.3740592154
 C         -3.2508748262       -0.0962421811       -0.5310405407
 C         -2.0868659231        0.2176669982       -1.4358377820
 C         -0.7335271298       -0.0041122221       -0.8060539044
 C         -0.4325445523       -1.1413009410       -0.1268019560
 O         -1.2813918182       -2.1593681932        0.0492115110
 C          0.8932715050       -1.3789653908        0.5027802231
 O          1.1201981561       -2.4091175123        1.1203695696
 C          1.8927545951       -0.3146194752        0.3353202128
 C          3.1596097627       -0.4737636770        0.8898491175
 C          4.1181239271        0.5157334729        0.7447682929
 C          3.8172285973        1.6728491777        0.0438459149
 C          2.5576479672        1.8412369045       -0.5101835193
 C          1.5875243962        0.8553518868       -0.3712948694
 C          0.2497879161        1.0657907715       -0.9636008363
 O         -0.0210141520        2.1069469480       -1.5589239143
 H         -4.3164775129       -0.4106747074        2.4598888515
 H         -5.2687294263       -0.6819918656        0.9917635198
 H         -5.2111508107        0.9191169103        1.7375782741
 H         -1.8777679353        1.8818541171        0.6567091952
 H         -1.7547657949        0.7230987030        1.9799238956
 H         -2.9786683605        1.9869014475        2.0356841013
 H         -4.0166721797       -0.7303821373       -0.9572524835
 H         -2.1234325349        1.2661219240       -1.7492661561
 H         -2.1593545587       -0.3876878599       -2.3431139232
 H         -2.1661147376       -1.9500846331       -0.3072048526
 H          3.3691387156       -1.3839730046        1.4314810803
 H          5.0971611875        0.3818064523        1.1765089872
 H          4.5610880954        2.4449925341       -0.0731250995
 H          2.3018656909        2.7356573712       -1.0585724616
  32
 Etot=  -51.4237697322 g norm=  0.00032860
 C         -5.1223302497       -0.1361929657       -1.4574891090
 C         -4.2086401303        0.2638838485       -0.3410307842
 C         -4.8712068133        0.5703294766        0.9715911352
 C         -2.8919541933        0.3466937172       -0.5103727518
 C         -1.9215240495        0.7721171600        0.5585157219
 C         -0.5179730882        0.2881295151        0.3092276446
 C         -0.2459415288       -1.0208110324        0.0674184865
 O         -1.1716017176       -1.9856914245        0.0294676952
 C          1.1307165716       -1.5286041834       -0.1749544738
 O          1.3344963438       -2.7140522161       -0.3916081317
 C          2.2074557218       -0.5291434701       -0.1346217291
 C          3.5224068399       -0.9336705493       -0.3474086055
 C          4.5544020790       -0.0102149285       -0.3155237911
 C          4.2796134834        1.3259205749       -0.0706610597
 C          2.9733295470        1.7383615960        0.1420865111
 C          1.9291694616        0.8211406357        0.1130178980
 C          0.5460162421        1.2893412478        0.3439354682
 O          0.3066921233        2.4756878695        0.5588402056
 H         -5.6965831683       -1.0168161390       -1.1733426324
 H         -4.5669871205       -0.3558356974       -2.3653083480
 H         -5.8284084379        0.6662185635       -1.6657890107
 H         -5.9516574131        0.5129207911        0.8769456737
 H         -4.6038358409        1.5704592869        1.3087374406
 H         -4.5584200753       -0.1332789596        1.7425062028
 H         -2.4607506917        0.1566374733       -1.4846401131
 H         -2.2607842351        0.4210407374        1.5377696772
 H         -1.8810695553        1.8656055228        0.6093393283
 H         -2.0721398771       -1.6224384469        0.1252474856
 H          3.7103235054       -1.9799395537       -0.5363589853
 H          5.5694782732       -0.3341207356       -0.4813003342
 H          5.0799046393        2.0483237088       -0.0450567394
 H          2.7371610458        2.7744019315        0.3340353298
  32
 Etot=  -51.4236822684 g norm=  0.00064119
 C         -5.0446233409       -0.1876831301        1.5220793954
 C         -4.1761742611        0.1798102474        0.3555764019
 C         -4.9026679900        0.2461518415       -0.9529722073
 C         -2.8825018490        0.4417505451        0.5231417354
 C         -1.9021412198        0.8789273096       -0.5303899640
 C         -0.5108878391        0.3559902668       -0.2808203496
 C         -0.2740039023       -0.9629007782       -0.0569485796
 O         -1.2259872628       -1.9017746759       -0.0357652754
 C          1.0888631153       -1.5099665874        0.1787313739
 O          1.2631752184       -2.7051963320        0.3650923061
 C          2.1890317123       -0.5354044826        0.1712563775
 C          3.4910588469       -0.9742700613        0.3954531562
 C          4.5443647538       -0.0745812909        0.3970020703
 C          4.3042408825        1.2718220564        0.1729283100
 C          3.0112781339        1.7182732193       -0.0524458149
 C          1.9458843598        0.8253383095       -0.0552437621
 C          0.5774189550        1.3307359365       -0.2953058418
 O          0.3694700567        2.5251868002       -0.4978520159
 H         -5.4817700758       -1.1740253466        1.3728255959
 H         -5.8634928887        0.5241883120        1.6128608632
 H         -4.4814094954       -0.1916338467        2.4513197555
 H         -5.5755077400       -0.6032427283       -1.0507663069
 H         -4.2305170744        0.2622850180       -1.8051847842
 H         -5.5072615855        1.1516489094       -0.9856535876
 H         -2.4669488751        0.3991506438        1.5224666449
 H         -1.8362518901        1.9719008509       -0.5379995870
 H         -2.2302297242        0.5710724135       -1.5265011193
 H         -2.1158190137       -1.5060118996       -0.1150783086
 H          3.6521000921       -2.0278854297        0.5673380117
 H          5.5490923733       -0.4248958060        0.5723148009
 H          5.1210984987        1.9757782016        0.1734716952
 H          2.8018583896        2.7627910796       -0.2290076929
  32
 Etot=  -51.4237064807 g norm=  0.00075650
 C         -5.0581185607       -0.7548885545        1.1182643889
 C         -4.1817454497        0.0503153917        0.2052855193
 C         -4.8954535180        0.6190824830       -0.9830486604
 C         -2.8937773793        0.2356394999        0.4839812080
 C         -1.9029059633        1.0542045881       -0.2974866439
 C         -0.5153067416        0.4663686057       -0.2691917793
 C         -0.2865353512       -0.8359532431       -0.5811978366
 O         -1.2437528412       -1.7011606488       -0.9321664055
 C          1.0722170889       -1.4407992538       -0.5764415813
 O          1.2382695179       -2.6158797505       -0.8680493294
 C          2.1787304292       -0.5468439860       -0.2070078902
 C          3.4783804512       -1.0451359435       -0.1797038469
 C          4.5382312946       -0.2223815191        0.1647405948
 C          4.3068700959        1.1060889790        0.4845957835
 C          3.0160978861        1.6112735349        0.4609433275
 C          1.9442250449        0.7955033917        0.1173749109
 C          0.5781298766        1.3607572276        0.1034598198
 O          0.3766060189        2.5380559904        0.3935582620
 H         -5.4851547587       -1.6017393908        0.5829932251
 H         -5.8841105535       -0.1421114249        1.4757505734
 H         -4.5034955599       -1.1265032248        1.9755374201
 H         -5.5464343657        1.4305889798       -0.6591300643
 H         -5.5228514665       -0.1426185167       -1.4426749274
 H         -4.2156025542        1.0138030014       -1.7317641680
 H         -2.4900710592       -0.1940725344        1.3929754055
 H         -1.8337957680        2.0579996778        0.1345705533
 H         -2.2213700642        1.1728998786       -1.3363327698
 H         -2.1311020217       -1.2997103090       -0.8495340957
 H          3.6322111389       -2.0831167751       -0.4339062110
 H          5.5410722197       -0.6183569550        0.1817871440
 H          5.1289584470        1.7504524098        0.7530411805
 H          2.8134870173        2.6426832207        0.7083842798
  32
 Etot=  -51.4236896051 g norm=  0.00029138
 C         -5.0420644031       -0.6398053715        1.2967453327
 C         -4.1611477403       -0.0031836675        0.2627782040
 C         -4.8560968968        0.2979680444       -1.0298624068
 C         -2.8862559355        0.2717748810        0.5283349582
 C         -1.8941367119        0.9516705008       -0.3742910448
 C         -0.5006925601        0.3944073407       -0.2314941349
 C         -0.2553387922       -0.9401148729       -0.2992387315
 O         -1.2009534412       -1.8663919234       -0.4888996208
 C          1.1106627983       -1.5171969308       -0.1832006985
 O          1.2930815196       -2.7227844175       -0.2671499292
 C          2.2037453755       -0.5581127889        0.0304777574
 C          3.5078017053       -1.0276050530        0.1607824670
 C          4.5547532921       -0.1437874281        0.3644774106
 C          4.3062218970        1.2176576832        0.4376122806
 C          3.0111126295        1.6949223839        0.3082593857
 C          1.9519280837        0.8178170488        0.1051870632
 C          0.5806735101        1.3550457820       -0.0252893333
 O          0.3648684920        2.5634700967        0.0386620424
 H         -5.8978404851        0.0016340779        1.5015749899
 H         -4.5047568248       -0.8112214033        2.2254986764
 H         -5.4251441888       -1.5922386851        0.9327602575
 H         -5.4562159058       -0.5556731427       -1.3386748595
 H         -4.1662799495        0.5502110498       -1.8290291077
 H         -5.5309094837        1.1415313349       -0.8895713623
 H         -2.4979333977        0.0413942614        1.5129779876
 H         -1.8395396542        2.0160199450       -0.1228196759
 H         -2.2018023048        0.8845074137       -1.4208624927
 H         -2.0929618304       -1.4659782920       -0.4797528145
 H          3.6753299992       -2.0924747253        0.0998102452
 H          5.5611069338       -0.5180414710        0.4645005870
 H          5.1183792008        1.9096141166        0.5948842981
 H          2.7951538085        2.7512678548        0.3640454980
  32
 Etot=  -51.4237049238 g norm=  0.00036000
 C         -5.0314011993       -0.4069026265        1.3999263557
 C         -4.1629463189        0.0898959647        0.2825494013
 C         -4.8684119190        0.2123365852       -1.0338268291
 C         -2.8885333658        0.4068583979        0.4985824208
 C         -1.9072266890        0.9635862288       -0.4955662957
 C         -0.5166796971        0.4138732536       -0.3030241400
 C         -0.2851840133       -0.9223876389       -0.2221191871
 O         -1.2425884251       -1.8528612872       -0.2974911261
 C          1.0760999689       -1.4975562131       -0.0540879327
 O          1.2462494347       -2.7067956874       -0.0056622929
 C          2.1797744996       -0.5321069018        0.0457723335
 C          3.4802462616       -0.9978798714        0.2185890423
 C          4.5368086871       -0.1077499617        0.3201800493
 C          4.3013422692        1.2561128024        0.2492736519
 C          3.0100148231        1.7295432469        0.0755632528
 C          1.9414716120        0.8463640017       -0.0273339452
 C          0.5749959611        1.3802322836       -0.2112023094
 O          0.3715210605        2.5903914211       -0.2817545560
 H         -5.3971682097       -1.4081883938        1.1770105263
 H         -5.8981832798        0.2419479394        1.5134508891
 H         -4.4902012667       -0.4344820842        2.3416382687
 H         -5.5059219255        1.0956877333       -1.0219947270
 H         -5.5072561252       -0.6530036463       -1.1975683176
 H         -4.1831290068        0.3062502132       -1.8705232346
 H         -2.4898336581        0.3105361876        1.5014275404
 H         -1.8412541563        2.0499883898       -0.3768501992
 H         -2.2318291169        0.7710770350       -1.5212250528
 H         -2.1304284360       -1.4433336892       -0.3183017436
 H          3.6374293727       -2.0647254003        0.2714837749
 H          5.5401068898       -0.4791635553        0.4552056978
 H          5.1207617631        1.9528071822        0.3279696104
 H          2.8045330760        2.7880457718        0.0169853997
  32
 Etot=  -51.4237426727 g norm=  0.00035986
 C         -5.1392505887       -0.5203081679        1.1949067861
 C         -4.2190376894        0.1909686599        0.2522223847
 C         -4.8772682297        0.9266603400       -0.8792796516
 C         -2.8993064084        0.1723698289        0.4144384537
 C         -1.9243996260        0.8931010298       -0.4787018686
 C         -0.5223161173        0.3561966030       -0.3727133564
 C         -0.2476835437       -0.9610191654       -0.5602989812
 O         -1.1697305186       -1.8849548427       -0.8526852723
 C          1.1273622866       -1.5204182473       -0.4718365243
 O          1.3361597144       -2.7094320763       -0.6627558669
 C          2.1962834984       -0.5652938681       -0.1474825022
 C          3.5070742436       -1.0205725281       -0.0351417910
 C          4.5319576003       -0.1399818931        0.2699205418
 C          4.2543431292        1.2038989248        0.4639557503
 C          2.9522295635        1.6667160945        0.3540249485
 C          1.9149711179        0.7926877393        0.0496901245
 C          0.5357566366        1.3140075655       -0.0590092942
 O          0.2947185698        2.5076260429        0.1083871689
 H         -5.7566158960       -1.2324046613        0.6491921068
 H         -5.8052334741        0.1954055933        1.6750053181
 H         -4.5852553829       -1.0509999609        1.9646168665
 H         -5.9574699193        0.9090920407       -0.7692031111
 H         -4.6247678873        0.4738024031       -1.8376466035
 H         -4.5458199362        1.9632983498       -0.9051850046
 H         -2.4674142564       -0.3394460156        1.2644578920
 H         -1.8858254035        1.9534607855       -0.2066042850
 H         -2.2592084079        0.8440624989       -1.5194752709
 H         -2.0690766433       -1.5080159143       -0.8469673283
 H          3.6973687680       -2.0717836831       -0.1916251989
 H          5.5437138950       -0.5031220489        0.3551476737
 H          5.0490545962        1.8930430507        0.7017150154
 H          2.7139725886        2.7095670837        0.5013872109
  32
 Etot=  -51.4239732436 g norm=  0.00069793
 C         -4.5554155131        0.4069921094        1.7656332692
 C         -3.7194091607        0.6570332290        0.5471803680
 C         -3.7510491265        2.0639547640        0.0227009026
 C         -3.0243705507       -0.3210693457       -0.0227282445
 C         -2.1507362883       -0.1827359280       -1.2431876066
 C         -0.7078479287       -0.3598902060       -0.8408183375
 C         -0.1396273882       -1.5848084973       -0.6948775844
 O         -0.7680791358       -2.7451511375       -0.9224572583
 C          1.2728343103       -1.7742615779       -0.2707473153
 O          1.7595005966       -2.8927711734       -0.1902858407
 C          2.0297663952       -0.5524059886        0.0337753592
 C          3.3518105477       -0.6559897776        0.4574717099
 C          4.0852296250        0.4817351545        0.7514396340
 C          3.5020649119        1.7325484629        0.6241481470
 C          2.1866921169        1.8456527066        0.2014509601
 C          1.4404180589        0.7112971623       -0.0969521932
 C          0.0410116877        0.8615447777       -0.5487197205
 O         -0.4647193594        1.9737994238       -0.6758272543
 H         -5.5921166573        0.6742197617        1.5665469856
 H         -4.2045527477        1.0282294879        2.5887280188
 H         -4.5127769385       -0.6348606126        2.0718207347
 H         -2.7424759413        2.4360035479       -0.1506451912
 H         -4.2453329515        2.7222431044        0.7312920090
 H         -4.2939257376        2.1086553956       -0.9206310688
 H         -3.0354519129       -1.3059447693        0.4262895555
 H         -2.2621826348        0.8107990547       -1.6736528756
 H         -2.4387036377       -0.9179018537       -1.9989022840
 H         -1.6803474081       -2.6119584460       -1.2325519223
 H          3.7830471225       -1.6416759323        0.5480025804
 H          5.1086368939        0.3904949194        1.0787707158
 H          4.0692947332        2.6209069749        0.8524171834
 H          1.7143414177        2.8106820324        0.0940997927
  32
 Etot=  -51.4239517623 g norm=  0.00055865
 C         -4.3677583427        1.2780858761        1.8331795271
 C         -3.5838932335        1.0611551649        0.5744660822
 C         -3.5893764341        2.2109965553       -0.3916023321
 C         -2.9557872803       -0.0865833228        0.3447074798
 C         -2.1384739281       -0.4113568825       -0.8794917779
 C         -0.6801139042       -0.4854725066       -0.4994185005
 C         -0.1339900444       -1.5936762100        0.0649956925
 O         -0.8028860041       -2.7283406396        0.3063191558
 C          1.2936462118       -1.6737203953        0.4722683494
 O          1.7554612024       -2.7030010788        0.9432487040
 C          2.0957168694       -0.4595422842        0.2700627801
 C          3.4357376311       -0.4558396809        0.6472958416
 C          4.2118418378        0.6772108231        0.4672194038
 C          3.6537813503        1.8160630661       -0.0916582751
 C          2.3207795187        1.8212086729       -0.4721786937
 C          1.5314463964        0.6903178167       -0.2965869012
 C          0.1133375279        0.7237792575       -0.7126997474
 O         -0.3712637974        1.7315622295       -1.2213451815
 H         -5.4002702804        1.5235807868        1.5897413698
 H         -3.9497942449        2.1157895054        2.3900311052
 H         -4.3555326266        0.3961931416        2.4680992005
 H         -4.2008793178        1.9753541251       -1.2618591671
 H         -2.5817839579        2.4345993394       -0.7382602602
 H         -3.9978058765        3.1001584100        0.0800429605
 H         -2.9835085571       -0.8613756197        1.1001253228
 H         -2.2538035611        0.3717706557       -1.6266600737
 H         -2.4751835053       -1.3544549934       -1.3175382425
 H         -1.7263855959       -2.6752538127        0.0058139892
 H          3.8464578810       -1.3552643194        1.0809411212
 H          5.2486038189        0.6698734616        0.7634925047
 H          4.2546883585        2.7002255721       -0.2341793463
 H          1.8668445422        2.6980630317       -0.9089811266
  32
 Etot=  -51.4236999626 g norm=  0.00036399
 C         -5.0769720236       -0.6212929624       -1.0532553010
 C         -4.1717134673        0.0123489045       -0.0389165871
 C         -4.8396508771        0.3266266026        1.2648188216
 C         -2.8997288113        0.2752814653       -0.3288669513
 C         -1.8868810216        0.9509315239        0.5539595794
 C         -0.4964355015        0.3974380134        0.3736900183
 C         -0.2474899151       -0.9371743053        0.4253831058
 O         -1.1870674471       -1.8661438513        0.6311563606
 C          1.1158349994       -1.5110156736        0.2693970035
 O          1.3005382132       -2.7176788249        0.3280957858
 C          2.2036550930       -0.5476185557        0.0489445737
 C          3.5066299667       -1.0129398086       -0.1052429823
 C          4.5488500625       -0.1246654286       -0.3140818513
 C          4.2964439192        1.2368964285       -0.3703561607
 C          3.0022020941        1.7098355046       -0.2187155586
 C          1.9480338845        0.8284663647       -0.0084623697
 C          0.5779431254        1.3615007945        0.1482292293
 O          0.3577680717        2.5694966994        0.0909815949
 H         -4.5593488633       -0.7992105969       -1.9918294723
 H         -5.9322305245        0.0252028697       -1.2430263009
 H         -5.4589079031       -1.5697936979       -0.6784753939
 H         -5.4485055040       -0.5163599109        1.5854023692
 H         -5.5025848282        1.1809936204        1.1345661266
 H         -4.1324720804        0.5688430026        2.0516170426
 H         -2.5312020400        0.0376971670       -1.3195831922
 H         -2.1689498186        0.8753083888        1.6072853436
 H         -1.8402765382        2.0172733934        0.3093490904
 H         -2.0793893872       -1.4666578832        0.6484529233
 H          3.6772250157       -2.0779900130       -0.0574385292
 H          5.5544924893       -0.4956421272       -0.4320577540
 H          5.1048197324        1.9321266193       -0.5324509024
 H          2.7833662933        2.7664802734       -0.2597290647
  32
 Etot=  -51.4237026870 g norm=  0.00033674
 C         -5.0886848018       -0.5170711325        1.1555241921
 C         -4.2005096168        0.1786553105        0.1668417223
 C         -4.9029770676        0.6161382166       -1.0820342646
 C         -2.9133870290        0.3848527111        0.4340087607
 C         -1.9079100190        1.1047310539       -0.4222672063
 C         -0.5301705628        0.5005907267       -0.3263397496
 C         -0.3196930748       -0.8287282823       -0.5115275151
 O         -1.2874055828       -1.7089914728       -0.7888068162
 C          1.0293124902       -1.4508596283       -0.4367922891
 O          1.1805259622       -2.6488712089       -0.6255391040
 C          2.1454613835       -0.5445808976       -0.1318945915
 C          3.4351966577       -1.0594443626       -0.0339474321
 C          4.5033760905       -0.2258853351        0.2543918640
 C          4.2906262275        1.1302589722        0.4449986096
 C          3.0100236978        1.6523884532        0.3488264131
 C          1.9297570908        0.8257897522        0.0621104424
 C          0.5744275045        1.4094151913       -0.0288000693
 O          0.3900774534        2.6127167629        0.1412962971
 H         -4.5410147025       -0.8016371392        2.0496824844
 H         -5.5222232085       -1.4113181567        0.7103120777
 H         -5.9096046131        0.1378839995        1.4429926236
 H         -5.5841139220        1.4328035613       -0.8459574108
 H         -5.4983064366       -0.2026168739       -1.4821966200
 H         -4.2186662539        0.9618398004       -1.8500471891
 H         -2.5201772466        0.0535843505        1.3876103502
 H         -1.8237754092        2.1455813848       -0.0925859579
 H         -2.2208762408        1.1231121244       -1.4692122345
 H         -2.1690347805       -1.2892319641       -0.7520160499
 H          3.5745927102       -2.1191546831       -0.1866304204
 H          5.4984229471       -0.6348537285        0.3281319870
 H          5.1196699003        1.7833152328        0.6667064150
 H          2.8221291731        2.7058549696        0.4935355073
  32
 Etot=  -51.4237661868 g norm=  0.00026529
 C         -5.1059465608       -0.1976903355       -1.6004471028
 C         -4.2009589870        0.3053925583       -0.5191565121
 C         -4.8767223864        0.7786879514        0.7357118095
 C         -2.8798391933        0.3365222952       -0.6703931037
 C         -1.9185804343        0.8624499635        0.3617382795
 C         -0.5183986545        0.3376956926        0.1876402493
 C         -0.2614257140       -0.9938864385        0.1057388487
 O         -1.2019601745       -1.9430382473        0.1679033015
 C          1.1112945490       -1.5439737570       -0.0511402029
 O          1.3027203830       -2.7496490107       -0.1105352691
 C          2.1996978660       -0.5590462162       -0.1260248767
 C          3.5110061501       -1.0011809485       -0.2781592197
 C          4.5538085441       -0.0924218001       -0.3532762917
 C          4.2936582103        1.2667053241       -0.2766990495
 C          2.9912168908        1.7166432425       -0.1246796329
 C          1.9363156007        0.8145588892       -0.0480520730
 C          0.5578630129        1.3232438532        0.1162507773
 O          0.3324530927        2.5292615816        0.1911919920
 H         -5.7097469811       -1.0244700262       -1.2285829317
 H         -4.5412736253       -0.5351234031       -2.4656018507
 H         -5.7855621940        0.5936630191       -1.9141916565
 H         -5.9560737094        0.7108351497        0.6376158192
 H         -4.6099868305        1.8135888738        0.9435795156
 H         -4.5734267872        0.1808125038        1.5940404382
 H         -2.4368896107        0.0225217304       -1.6064455181
 H         -2.2766522455        0.6217807443        1.3675337121
 H         -1.8646977292        1.9545208476        0.2962227021
 H         -2.0968614376       -1.5557770575        0.2049567979
 H          3.6876606017       -2.0647170518       -0.3357956905
 H          5.5659641812       -0.4456456080       -0.4707775260
 H          5.1021482700        1.9779181617       -0.3355366542
 H          2.7664220262        2.7709773847       -0.0625350433
  32
 Etot=  -51.4237225809 g norm=  0.00053819
 C         -5.0756126685       -0.5242087123       -1.1863716879
 C         -4.1538484131       -0.0203592791       -0.1161972429
 C         -4.7896875555        0.1037138586        1.2353483867
 C         -2.8934893349        0.3037263837       -0.3966061208
 C         -1.8722768796        0.8715624137        0.5487271307
 C         -0.4831515395        0.3410456861        0.3003765776
 C         -0.2379564962       -0.9880798120        0.1620253908
 O         -1.1800531414       -1.9349289713        0.2249215331
 C          1.1251671596       -1.5382737105       -0.0670041801
 O          1.3036424967       -2.7401008079       -0.1992828980
 C          2.2201311847       -0.5591711599       -0.1172202283
 C          3.5254722774       -1.0037813644       -0.3083810098
 C          4.5741462640       -0.1001162150       -0.3587705997
 C          4.3257374162        1.2562842905       -0.2202145118
 C          3.0291187599        1.7087882866       -0.0311987957
 C          1.9686181350        0.8116147953        0.0230076357
 C          0.5965372917        1.3228524467        0.2272169161
 O          0.3790195270        2.5279794602        0.3336782985
 H         -5.4218599946       -1.5280944227       -0.9444593027
 H         -4.5844884788       -0.5481518523       -2.1552893373
 H         -5.9518368551        0.1184609078       -1.2536234096
 H         -4.0605962860        0.1389890171        2.0391829338
 H         -5.4643919290       -0.7314423058        1.4100335504
 H         -5.3779472936        1.0198260580        1.2768266353
 H         -2.5453575670        0.2120575966       -1.4184525774
 H         -2.1483204854        0.6788426592        1.5885961663
 H         -1.8247653923        1.9587596813        0.4270967873
 H         -2.0732890341       -1.5399153181        0.2875757363
 H          3.6929212053       -2.0651290310       -0.4140013357
 H          5.5817251629       -0.4550272027       -0.5058613113
 H          5.1391151439        1.9633482693       -0.2589993139
 H          2.8132252661        2.7611195164        0.0781512670
  32
 Etot=  -51.4249627536 g norm=  0.00027361
 C         -4.6358546057        0.0634622530        1.5073209965
 C         -3.4370181476        0.3965098782        0.6733443314
 C         -2.4751953586        1.3580330885        1.3035482337
 C         -3.2504870772       -0.1497225056       -0.5253119521
 C         -2.0887476567        0.1325505718       -1.4434788041
 C         -0.7337670245       -0.0474106397       -0.8037313205
 C         -0.4188480784       -1.1549276739       -0.0831054176
 O         -1.2546349948       -2.1768459028        0.1296233993
 C          0.9099828555       -1.3533388387        0.5536729367
 O          1.1509224955       -2.3592593148        1.2049946928
 C          1.8952368697       -0.2820488087        0.3497919917
 C          3.1639586168       -0.4050550604        0.9092679404
 C          4.1093441473        0.5914792212        0.7297505584
 C          3.7930528405        1.7197911850       -0.0101565697
 C          2.5315398462        1.8520658916       -0.5695466130
 C          1.5748259816        0.8584038708       -0.3971867574
 C          0.2355461354        1.0292415051       -0.9985432862
 O         -0.0480178531        2.0442111467       -1.6318946202
 H         -5.2276190189        0.9603514840        1.6835639655
 H         -4.3192560400       -0.3188213650        2.4766087944
 H         -5.2649684518       -0.6780990491        1.0232591216
 H         -1.9093058564        1.9088744371        0.5565482025
 H         -1.7672590726        0.8202537620        1.9362083451
 H         -3.0097670241        2.0677480212        1.9304940916
 H         -4.0063967339       -0.8166155183       -0.9180169214
 H         -2.1349451343        1.1651375891       -1.8045764792
 H         -2.1551967712       -0.5146240945       -2.3218171082
 H         -2.1406661915       -1.9943181910       -0.2371935999
 H          3.3854641340       -1.2929836080        1.4822596982
 H          5.0895351405        0.4860284093        1.1666424502
 H          4.5261449126        2.4977727332       -0.1529834600
 H          2.2639575029        2.7237313549       -1.1481027160
  32
 Etot=  -51.4236408141 g norm=  0.00038760
 C         -4.8971495909       -0.3180891335        1.7441571943
 C         -4.0674565609       -0.0017656350        0.5350750155
 C         -4.7903138239       -0.1831422792       -0.7647447837
 C         -2.8110379236        0.4189659922        0.6630090256
 C         -1.8628690541        0.8192663102       -0.4330211718
 C         -0.4561220617        0.3364466385       -0.1839486298
 C         -0.1929896247       -0.9585926401        0.1313338676
 O         -1.1306478279       -1.9040369155        0.2531673763
 C          1.1844752536       -1.4695512709        0.3632425553
 O          1.3821430653       -2.6454165377        0.6313066861
 C          2.2693793440       -0.4851419079        0.2455535183
 C          3.5842622737       -0.8906571705        0.4569488475
 C          4.6242981007        0.0183433971        0.3525318926
 C          4.3577012724        1.3408614747        0.0352956286
 C          3.0515501368        1.7542890054       -0.1766281634
 C          1.9992894202        0.8516545332       -0.0743198017
 C          0.6161174890        1.3216658437       -0.3024198193
 O          0.3834734723        2.4965668362       -0.5787989777
 H         -4.3382552880       -0.1586921297        2.6621862565
 H         -5.2310788112       -1.3541652554        1.7124373759
 H         -5.7843418705        0.3127663406        1.7617096820
 H         -5.5512596609        0.5898077122       -0.8662815350
 H         -5.2973098690       -1.1463688402       -0.7785002507
 H         -4.1318502021       -0.1209143558       -1.6252363033
 H         -2.4024648394        0.5414033569        1.6589944526
 H         -1.8188720283        1.9112800059       -0.4985877248
 H         -2.2013192265        0.4511146120       -1.4045344018
 H         -2.0278938981       -1.5193093005        0.1859936508
 H          3.7654195645       -1.9260110006        0.7038625833
 H          5.6390894574       -0.3060068306        0.5192035917
 H          5.1643633745        2.0517065056       -0.0484670322
 H          2.8219339866        2.7797231132       -0.4251792648
  32
 Etot=  -51.4236810660 g norm=  0.00037145
 C         -5.0765726072       -0.4734527397        1.2747036970
 C         -4.1953350369        0.1473836128        0.2322616087
 C         -4.9087853294        0.5405330684       -1.0256042165
 C         -2.8988294584        0.3416814939        0.4599739011
 C         -1.9090025087        0.9963685854       -0.4641852021
 C         -0.5197658857        0.4303988153       -0.3208223924
 C         -0.2854897189       -0.9065467341       -0.3800757303
 O         -1.2389268261       -1.8258979129       -0.5647425295
 C          1.0754605216       -1.4942059288       -0.2586036781
 O          1.2483463673       -2.7015108511       -0.3366759254
 C          2.1755136277       -0.5432742193       -0.0444658193
 C          3.4749529425       -1.0229780956        0.0952287156
 C          4.5282801816       -0.1467480396        0.2993851068
 C          4.2908908542        1.2171512622        0.3637761907
 C          3.0005038060        1.7044737851        0.2250843589
 C          1.9350533727        0.8351772481        0.0212713224
 C          0.5692420373        1.3833936120       -0.1197618241
 O          0.3638309630        2.5941646186       -0.0661749728
 H         -5.8984434846        0.1991548976        1.5145951958
 H         -4.5240380320       -0.6890939960        2.1852826951
 H         -5.5082458131       -1.4003021987        0.8994196477
 H         -5.4163708255        1.4921977998       -0.8718795684
 H         -5.6638275558       -0.2009780130       -1.2768666284
 H         -4.2348173214        0.6558081669       -1.8690936396
 H         -2.4886678496        0.0583112829        1.4216669391
 H         -1.8443660561        2.0656608067       -0.2375852739
 H         -2.2287246281        0.9092811416       -1.5061194214
 H         -2.1275012062       -1.4192522941       -0.5626929378
 H          3.6338564964       -2.0895591379        0.0412221950
 H          5.5308369411       -0.5289087565        0.4074304066
 H          5.1079742441        1.9030394556        0.5216805986
 H          2.7933309510        2.7631990875        0.2720576030
  32
 Etot=  -51.4237194598 g norm=  0.00022019
 C         -5.0387848331       -0.3758674061       -1.4172585199
 C         -4.1518073172       -0.0075674979       -0.2653677549
 C         -4.8366260222       -0.0260897253        1.0674416811
 C         -2.8785246955        0.3259064360       -0.4626210755
 C         -1.8866222858        0.7682387342        0.5771363182
 C         -0.4863099726        0.2905218492        0.2891891125
 C         -0.2200277320       -1.0087922815       -0.0051543770
 O         -1.1483027899       -1.9691889925       -0.0689083768
 C          1.1531709009       -1.5091211737       -0.2821928210
 O          1.3514484254       -2.6849351182       -0.5499657261
 C          2.2331631788       -0.5150943001       -0.2085155541
 C          3.5455867640       -0.9143903674       -0.4454821692
 C          4.5807459785        0.0038803378       -0.3813993344
 C          4.3115734991        1.3296601274       -0.0803947809
 C          3.0076642335        1.7371508131        0.1553911121
 C          1.9604381051        0.8249245218        0.0948634227
 C          0.5796749447        1.2881360615        0.3494022237
 O          0.3439707460        2.4675147957        0.6031140939
 H         -4.5166058914       -0.2858318345       -2.3658579833
 H         -5.9127287376        0.2731081862       -1.4354391452
 H         -5.3918744187       -1.4004829948       -1.3081756538
 H         -5.4396664616        0.8745274688        1.1775909485
 H         -4.1374259856       -0.0624178403        1.8971500675
 H         -5.5052861946       -0.8817382412        1.1330815242
 H         -2.4941257142        0.3430235293       -1.4754456334
 H         -2.1836735948        0.4300276281        1.5732446903
 H         -1.8505731330        1.8622425292        0.6085266307
 H         -2.0479182819       -1.6004772425        0.0353995639
 H          3.7289457512       -1.9525325019       -0.6785790958
 H          5.5938200114       -0.3159154274       -0.5663519211
 H          5.1143675546        2.0479244943       -0.0292548224
 H          2.7758400519        2.7653109093        0.3901605738
  32
 Etot=  -51.4237325208 g norm=  0.00027827
 C         -5.0994627742        0.2462519867        1.6493083530
 C         -4.1994407392        0.5254256796        0.4860860130
 C         -4.8780722810        0.9106804278       -0.7962748961
 C         -2.8766270331        0.4360185182        0.5841355282
 C         -1.9288072959        0.7313106242       -0.5490713580
 C         -0.5256264886        0.2579423578       -0.2832510178
 C         -0.2544327937       -1.0411528798        0.0071960956
 O         -1.1806551975       -2.0035585760        0.0782258869
 C          1.1216572089       -1.5402525192        0.2701569826
 O          1.3261151012       -2.7194342562        0.5179757007
 C          2.1965387280       -0.5396762636        0.2121607790
 C          3.5095662326       -0.9338931109        0.4544388975
 C          4.5397973398       -0.0091335132        0.4074416898
 C          4.2652890055        1.3179024488        0.1170545953
 C          2.9611987887        1.7197192588       -0.1271488736
 C          1.9187359018        0.8011897828       -0.0827543379
 C          0.5381621211        1.2576887981       -0.3501383108
 O          0.3012074784        2.4329827779       -0.6209656115
 H         -5.8036307177       -0.5451083823        1.3958976835
 H         -5.6764618707        1.1367155327        1.8950907788
 H         -4.5321399850       -0.0541637661        2.5262811561
 H         -4.4655067489        1.8418413587       -1.1817293970
 H         -5.9456198179        1.0389716746       -0.6424423403
 H         -4.7321383507        0.1448464544       -1.5577774582
 H         -2.4199284981        0.1868736771        1.5328480584
 H         -1.8797692919        1.8125548405       -0.7174422076
 H         -2.3011386291        0.2832991500       -1.4762856524
 H         -2.0792129272       -1.6503308952       -0.0528203434
 H          3.6972369152       -1.9730997263        0.6792039946
 H          5.5531380369       -0.3247720630        0.5979258002
 H          5.0640638236        2.0415737066        0.0808067186
 H          2.7254050030        2.7485939400       -0.3549559807
  32
 Etot=  -51.4236706704 g norm=  0.00071259
 C         -5.1208429376       -0.6634436950       -0.9021615307
 C         -4.1758473379        0.0241173461        0.0357615392
 C         -4.7978636715        0.5290072006        1.3040354972
 C         -2.8924039593        0.1879344829       -0.2760804392
 C         -1.8670755892        0.9103158456        0.5530032685
 C         -0.4745966688        0.3616052481        0.3806389561
 C         -0.2124941713       -0.9682418643        0.4741535055
 O         -1.1398971730       -1.9003620414        0.7196718640
 C          1.1545810480       -1.5344778843        0.3222909424
 O          1.3486906193       -2.7386949859        0.4009589280
 C          2.2346512184       -0.5671369600        0.0814254334
 C          3.5431733073       -1.0236924992       -0.0510167866
 C          4.5786036968       -0.1308996239       -0.2741232443
 C          4.3134720003        1.2260503847       -0.3691029965
 C          3.0132522399        1.6899510752       -0.2419667483
 C          1.9660719795        0.8041741203       -0.0157757269
 C          0.5896315881        1.3272656813        0.1160501153
 O          0.3561751037        2.5293577361        0.0093562817
 H         -4.6237690381       -0.9584423732       -1.8222009873
 H         -5.9469841856        0.0018075457       -1.1479300540
 H         -5.5405286114       -1.5508102428       -0.4301989803
 H         -4.1222869421        0.4502951543        2.1520382233
 H         -5.7047268570       -0.0261347436        1.5287115710
 H         -5.0631483241        1.5797104060        1.1904287463
 H         -2.5316575602       -0.1662929932       -1.2338116672
 H         -2.1374203585        0.8832374150        1.6123722056
 H         -1.8340291784        1.9654552123        0.2619249683
 H         -2.0368457666       -1.5119891410        0.7361384806
 H          3.7236341665       -2.0853721931        0.0261167214
 H          5.5888524195       -0.4948960877       -0.3732645899
 H          5.1165170424        1.9247802688       -0.5424959403
 H          2.7845692206        2.7427914780       -0.3140988786
  32
 Etot=  -51.4237563361 g norm=  0.00023316
 C         -5.1080184109       -0.2168412934        1.5477541501
 C         -4.1978733886        0.3264345868        0.4905466860
 C         -4.8678783312        0.8518471751       -0.7465639008
 C         -2.8770528214        0.3451915239        0.6462854894
 C         -1.9109529810        0.9078076470       -0.3617321646
 C         -0.5122191941        0.3746385378       -0.2025502329
 C         -0.2568015283       -0.9592595965       -0.1647981016
 O         -1.1971255743       -1.9054245120       -0.2648591554
 C          1.1142846378       -1.5158417372       -0.0175789970
 O          1.3039697922       -2.7230448941        0.0031675641
 C          2.2032327743       -0.5354275681        0.0973089683
 C          3.5126674203       -0.9840185469        0.2464343159
 C          4.5558659281       -0.0794868615        0.3579332309
 C          4.2980593627        1.2816785228        0.3205325035
 C          2.9975254870        1.7380277191        0.1717237453
 C          1.9421537818        0.8402552001        0.0594861479
 C          0.5654379505        1.3557942609       -0.0974205815
 O          0.3424527932        2.5638166414       -0.1389703975
 H         -5.7152074924       -1.0240718266        1.1404713661
 H         -5.7840143295        0.5642910935        1.8926612353
 H         -4.5469723042       -0.5930135828        2.3990676872
 H         -4.5797691303        1.8861091360       -0.9251880096
 H         -5.9478338671        0.8045676056       -0.6462218468
 H         -4.5808959221        0.2729715147       -1.6233330935
 H         -2.4381079131       -0.0088325256        1.5699376480
 H         -1.8555054097        1.9965291399       -0.2544633539
 H         -2.2660255859        0.7072857782       -1.3773152971
 H         -2.0914260458       -1.5167392366       -0.2971989742
 H          3.6875154652       -2.0490853240        0.2730669473
 H          5.5663333750       -0.4375370313        0.4742293920
 H          5.1070596185        1.9894780828        0.4071436800
 H          2.7745632956        2.7940848952        0.1397628522
  32
 Etot=  -51.4237038665 g norm=  0.00036180
 C         -5.0334676463       -0.5717209843        1.4110608467
 C         -4.1638146915        0.0192742934        0.3412483715
 C         -4.8729119191        0.2651288983       -0.9554159690
 C         -2.8864637352        0.3051695728        0.5812437032
 C         -1.9034344468        0.9439385048       -0.3606144740
 C         -0.5088357357        0.3922825067       -0.2067906054
 C         -0.2647979098       -0.9440572988       -0.2246713405
 O         -1.2132048070       -1.8756612479       -0.3688724734
 C          1.1020688695       -1.5172535788       -0.1004835174
 O          1.2833067475       -2.7252071426       -0.1402461149
 C          2.1971382651       -0.5516082995        0.0680562833
 C          3.5023636654       -1.0164387984        0.2040827951
 C          4.5508517984       -0.1262279010        0.3687118788
 C          4.3026675772        1.2369438477        0.3980808330
 C          3.0065564486        1.7095907457        0.2618983955
 C          1.9461518415        0.8262336596        0.0960374938
 C          0.5744894432        1.3593459720       -0.0471516495
 O          0.3602398614        2.5695187344       -0.0307606414
 H         -4.4853933933       -0.7046322289        2.3398651863
 H         -5.4215619465       -1.5378249247        1.0918453374
 H         -5.8858132506        0.0791183992        1.5987541043
 H         -5.5580334395        1.1041324769       -0.8389510194
 H         -5.4643670453       -0.6065741356       -1.2289771754
 H         -4.1931864061        0.4983133817       -1.7687096123
 H         -2.4878135858        0.1172164471        1.5709496455
 H         -1.8458650056        2.0183394211       -0.1572886273
 H         -2.2212801225        0.8298890925       -1.4000626718
 H         -2.1045760224       -1.4734978689       -0.3663295064
 H          3.6696496356       -2.0827552085        0.1783050572
 H          5.5579379576       -0.4970173130        0.4738953090
 H          5.1157542103        1.9335862772        0.5268773611
 H          2.7911185192        2.7675218948        0.2810516399
  32
 Etot=  -51.4249929488 g norm=  0.00035962
 C         -4.6425028864        0.2830966199        1.5483025709
 C         -3.4421746317        0.5171077383        0.6832297071
 C         -2.4604909106        1.5147801380        1.2197614692
 C         -3.2720524954       -0.1396135364       -0.4612069746
 C         -2.1128169912        0.0359092399       -1.4089056692
 C         -0.7556413809       -0.0922792717       -0.7618076567
 C         -0.4451177592       -1.1300192434        0.0577568566
 O         -1.2893416878       -2.1185170549        0.3710824305
 C          0.8877256081       -1.2824904956        0.6986941176
 O          1.1289554718       -2.2323006146        1.4293429893
 C          1.8767312153       -0.2376523424        0.3982116190
 C          3.1459243626       -0.3151239433        0.9646668505
 C          4.0948028808        0.6577513574        0.6957600439
 C          3.7817628047        1.7164446899       -0.1419148349
 C          2.5199766722        1.8028386599       -0.7096501585
 C          1.5596697907        0.8324656381       -0.4478483472
 C          0.2202235172        0.9539423134       -1.0609420385
 O         -0.0582582377        1.9057894156       -1.7876934740
 H         -5.2893765553       -0.4849268827        1.1338690741
 H         -5.2148946305        1.2041234201        1.6480195179
 H         -4.3273448574       -0.0194657433        2.5457726035
 H         -2.9793254441        2.2868778459        1.7829480987
 H         -1.8901809381        1.9869090043        0.4237114529
 H         -1.7575761301        1.0244157778        1.8951088067
 H         -4.0417186032       -0.8261183241       -0.7875125874
 H         -2.1513416401        1.0266611700       -1.8733218702
 H         -2.1913277739       -0.6976125967       -2.2155904034
 H         -2.1754723863       -1.9620546546       -0.0072424889
 H          3.3653250778       -1.1494937821        1.6137762987
 H          5.0751214302        0.5881110144        1.1395375138
 H          4.5172809448        2.4760933645       -0.3540001470
 H          2.2548127216        2.6202567290       -1.3635023519
  32
 Etot=  -51.4237170004 g norm=  0.00027470
 C         -5.0353583967       -0.4696647206        1.4755110941
 C         -4.1556582524        0.0685639753        0.3865468953
 C         -4.8465802672        0.2349753925       -0.9328357397
 C         -2.8850206123        0.3830182327        0.6283237519
 C         -1.8977874887        0.9853487945       -0.3319739663
 C         -0.5110678813        0.4139094029       -0.1776035481
 C         -0.2890071958       -0.9261480638       -0.1534656692
 O         -1.2528555580       -1.8474016335       -0.2550145850
 C          1.0699753617       -1.5173307049       -0.0253726998
 O          1.2306621904       -2.7287902634       -0.0248150601
 C          2.1831714413       -0.5652495619        0.0943792970
 C          3.4821769138       -1.0472544430        0.2298069742
 C          4.5475306430       -0.1696967826        0.3467929719
 C          4.3224785716        1.1976676966        0.3286239478
 C          3.0325722558        1.6872119349        0.1935571478
 C          1.9552187360        0.8166783480        0.0759431564
 C          0.5902923092        1.3673000815       -0.0639028155
 O          0.3957881442        2.5808128867       -0.0828050164
 H         -4.5032939546       -0.5337041392        2.4206229345
 H         -5.4008831053       -1.4609740201        1.2114622553
 H         -5.9020832355        0.1763971280        1.6051919888
 H         -5.4949846743       -0.6172039348       -1.1253424408
 H         -4.1515267724        0.3402133351       -1.7601484935
 H         -5.4719794251        1.1266448525       -0.9047444265
 H         -2.4962187021        0.2503377064        1.6308126103
 H         -1.8210828277        2.0621772340       -0.1489000174
 H         -2.2256559123        0.8592881454       -1.3666331616
 H         -2.1386959061       -1.4326940560       -0.2522878857
 H          3.6312297446       -2.1165409140        0.2408224567
 H          5.5497705169       -0.5535081121        0.4518094057
 H          5.1487994167        1.8845661290        0.4200631454
 H          2.8349017214        2.7486689118        0.1777848002
  32
 Etot=  -51.4235796016 g norm=  0.00030851
 C         -5.0699131180       -0.5257961018        1.3122892147
 C         -4.2014386172        0.1619103846        0.3020553781
 C         -4.9466390329        0.7864559237       -0.8392973080
 C         -2.8792395366        0.1915190340        0.4347919160
 C         -1.9115886434        0.8676198264       -0.5031603742
 C         -0.5096421655        0.3347460636       -0.3697487727
 C         -0.2345361002       -0.9884256720       -0.5080896061
 O         -1.1557745246       -1.9214844478       -0.7718756556
 C          1.1399701409       -1.5443481568       -0.3920164961
 O          1.3497311818       -2.7393924336       -0.5388150431
 C          2.2072581351       -0.5779377510       -0.0967156084
 C          3.5177340196       -1.0282503449        0.0372581755
 C          4.5408912955       -0.1370054168        0.3161758905
 C          4.2618967955        1.2125668324        0.4629418106
 C          2.9602034530        1.6706271352        0.3306498607
 C          1.9248369611        0.7860397630        0.0515201523
 C          0.5465019470        1.3031723070       -0.0838042320
 O          0.3046225911        2.5019091082        0.0401448702
 H         -5.7060222072        0.2021109047        1.8145406399
 H         -4.4755925762       -1.0408965175        2.0621579278
 H         -5.7197062827       -1.2467200688        0.8187740633
 H         -5.8362110445        1.2885198843       -0.4651548826
 H         -5.2746014751        0.0179505114       -1.5389718843
 H         -4.3415234727        1.5114438328       -1.3738905801
 H         -2.4269280796       -0.2582348392        1.3098884275
 H         -1.8691218058        1.9397548010       -0.2835550820
 H         -2.2424954624        0.7602264246       -1.5399001163
 H         -2.0540558220       -1.5430121495       -0.7916915500
 H          3.7093857924       -2.0840959917       -0.0818467503
 H          5.5524421627       -0.4964130035        0.4181984542
 H          5.0553644688        1.9100294706        0.6796716019
 H          2.7207500274        2.7178405807        0.4402754209
  32
 Etot=  -51.4250134449 g norm=  0.00046618
 C         -4.7975376533       -0.5015085466       -0.9373952577
 C         -3.5317390112        0.1010760919       -0.4098251525
 C         -2.6338914231        0.7001381167       -1.4496152353
 C         -3.2375063911        0.0738278178        0.8876611449
 C         -2.0053787019        0.6686438558        1.5196982923
 C         -0.7023828373        0.2219134874        0.9029635681
 C         -0.4435337181       -1.0824104950        0.6256156032
 O         -1.2973316948       -2.0847157456        0.8586667741
 C          0.8365173020       -1.5416028561        0.0246514132
 O          1.0172506668       -2.7201445726       -0.2446891376
 C          1.8523106009       -0.5060101186       -0.2115272510
 C          3.0915173322       -0.8699353983       -0.7307285083
 C          4.0658280487        0.0883764407       -0.9575082622
 C          3.8068236715        1.4193656020       -0.6710840176
 C          2.5737851103        1.7920169855       -0.1586422620
 C          1.5897430449        0.8389067367        0.0774540431
 C          0.2832940012        1.2643644763        0.6224270776
 O          0.0406812793        2.4521244305        0.8276279383
 H         -5.3786081799       -0.9655765742       -0.1455013578
 H         -4.5654982644       -1.2509377356       -1.6925837653
 H         -5.4062271960        0.2670906375       -1.4113189803
 H         -3.2255946024        1.1262265923       -2.2563675158
 H         -1.9908304245       -0.0700500303       -1.8784787579
 H         -1.9978617939        1.4776639595       -1.0338541788
 H         -3.9524275545       -0.3577530644        1.5753816765
 H         -1.9921200620        0.4232256650        2.5849605265
 H         -2.0329767385        1.7608041535        1.4457127046
 H         -2.1549070677       -1.7495462023        1.1851617612
 H          3.2680763497       -1.9128751581       -0.9470267361
 H          5.0242473629       -0.2047180572       -1.3554806164
 H          4.5629352579        2.1684783080       -0.8445988082
 H          2.3506878400        2.8236856281        0.0690460776
  32
 Etot=  -51.4249889307 g norm=  0.00032330
 C         -4.6692070474       -0.3557418110        1.3266246183
 C         -3.4553811063        0.1882125187        0.6378351331
 C         -2.4978195331        0.9223960795        1.5271075918
 C         -3.2529950149        0.0010953558       -0.6638075053
 C         -2.0745721111        0.5179974981       -1.4489146629
 C         -0.7313491036        0.1485061504       -0.8684373712
 C         -0.4390351801       -1.1202874817       -0.4812845191
 O         -1.2905992584       -2.1474746456       -0.5692011479
 C          0.8798263181       -1.5087459111        0.0843683436
 O          1.1046042645       -2.6622550990        0.4205349919
 C          1.8761345325       -0.4352654192        0.2067147964
 C          3.1330194942       -0.7261937163        0.7294562993
 C          4.0882691792        0.2693238164        0.8546363407
 C          3.7938236138        1.5644006771        0.4587274364
 C          2.5444042623        1.8638880788       -0.0618769419
 C          1.5779691218        0.8733344891       -0.1933069216
 C          0.2519047971        1.2228295514       -0.7447687305
 O         -0.0100436311        2.3771173889       -1.0775302589
 H         -5.2949979544       -0.9228703093        0.6432774500
 H         -5.2579521647        0.4602963517        1.7428313516
 H         -4.3700384499       -1.0009320324        2.1512505607
 H         -3.0383978996        1.4336454773        2.3200064781
 H         -1.9141701930        1.6540697867        0.9739846557
 H         -1.8054118358        0.2204691675        1.9944343392
 H         -4.0070111568       -0.5194843989       -1.2391056039
 H         -2.1068474338        1.6109666078       -1.5043487516
 H         -2.1314230135        0.1457676082       -2.4751658180
 H         -2.1690237007       -1.8531926867       -0.8779440458
 H          3.3378607543       -1.7423285800        1.0313183075
 H          5.0588807538        0.0333285438        1.2608528950
 H          4.5343667940        2.3424869616        0.5546940493
 H          2.2937264345        2.8662969444       -0.3756249291
  32
 Etot=  -51.4236477786 g norm=  0.00028257
 C         -4.9884150915       -0.1583581325        1.5912329054
 C         -4.1206629280        0.0784496671        0.3907217030
 C         -4.8036869215       -0.1878926489       -0.9158566726
 C         -2.8677811459        0.5060186541        0.5298433443
 C         -1.8875586379        0.8386122915       -0.5604310808
 C         -0.4917398492        0.3570984032       -0.2537772508
 C         -0.2467300108       -0.9188962101        0.1433588929
 O         -1.1939332261       -1.8491342961        0.3030873977
 C          1.1211406452       -1.4259620540        0.4335182635
 O          1.3009939384       -2.5816105115        0.7881946109
 C          2.2192443111       -0.4642953669        0.2626288678
 C          3.5273843740       -0.8714057602        0.5097736036
 C          4.5797549286        0.0155644388        0.3527823680
 C          4.3322193820        1.3175547255       -0.0526127834
 C          3.0327138718        1.7329098905       -0.2988658186
 C          1.9682081211        0.8522020876       -0.1448630933
 C          0.5925602055        1.3237357337       -0.4116810290
 O          0.3756630436        2.4843271873       -0.7535169827
 H         -5.3113787772       -1.1978959450        1.6239975416
 H         -5.8816804013        0.4613752324        1.5326526972
 H         -4.4628766538        0.0736868977        2.5134829898
 H         -4.1196632225       -0.1821511363       -1.7586145978
 H         -5.5607302703        0.5757783282       -1.0907636392
 H         -5.3109950640       -1.1504179724       -0.8811821388
 H         -2.4889321806        0.6907773892        1.5279979809
 H         -1.8302218087        1.9252844834       -0.6811945042
 H         -2.2058468354        0.4246051445       -1.5200473460
 H         -2.0869570549       -1.4663625780        0.1891427440
 H          3.6936730914       -1.8906314453        0.8247973194
 H          5.5894087459       -0.3103569847        0.5457230742
 H          5.1485228565        2.0112189382       -0.1771518109
 H          2.8175474979        2.7432835811       -0.6133337871
  32
 Etot=  -51.4237302474 g norm=  0.00031217
 C         -5.1365170132       -0.4255603856        1.2841562373
 C         -4.2201047417        0.2370078420        0.3030628856
 C         -4.8836534805        0.9337126982       -0.8498967288
 C         -2.8988396644        0.2092405896        0.4498970877
 C         -1.9277117322        0.8812155171       -0.4847599225
 C         -0.5276079478        0.3425941282       -0.3632400842
 C         -0.2606924352       -0.9821674701       -0.5024006341
 O         -1.1899427932       -1.9106893146       -0.7540888087
 C          1.1122497557       -1.5448770806       -0.4020349156
 O          1.3144614017       -2.7407190914       -0.5528156075
 C          2.1872934462       -0.5838528686       -0.1177361736
 C          3.4969109560       -1.0406162066        0.0020255893
 C          4.5273038420       -0.1545996726        0.2707632885
 C          4.2563657458        1.1961113519        0.4217922577
 C          2.9555357510        1.6605745086        0.3037496847
 C          1.9130195369        0.7813747078        0.0345531672
 C          0.5358311300        1.3054396487       -0.0863730112
 O          0.3010776638        2.5051728351        0.0417179464
 H         -5.7675386380       -1.1522508002        0.7744753513
 H         -5.7891827951        0.3161209921        1.7425061521
 H         -4.5791093210       -0.9309312331        2.0682561484
 H         -5.9609400202        0.9521692707       -0.7163715315
 H         -4.6655126836        0.4260758694       -1.7889255146
 H         -4.5252890182        1.9578378988       -0.9358399204
 H         -2.4619807688       -0.2727416145        1.3145484548
 H         -1.8821803199        1.9532720324       -0.2646605303
 H         -2.2711152134        0.7827409552       -1.5192717825
 H         -2.0867549641       -1.5278202872       -0.7568370151
 H          3.6822014522       -2.0972150341       -0.1202732555
 H          5.5381483553       -0.5189217018        0.3613026343
 H          5.0553602092        1.8895974702        0.6307198029
 H          2.7224715755        2.7088823886        0.4167913756
  32
 Etot=  -51.4239674648 g norm=  0.00067111
 C         -4.5359532821        0.6477508580       -1.7537923523
 C         -3.6781784591        0.8222830968       -0.5372815896
 C         -3.6707959283        2.2039550650        0.0510629833
 C         -2.9986854710       -0.1968648340       -0.0232757943
 C         -2.1062820586       -0.1363674409        1.1898989845
 C         -0.6720438918       -0.3175572285        0.7587228728
 C         -0.1283952370       -1.5428339140        0.5398035908
 O         -0.7746218426       -2.7023652847        0.7155212210
 C          1.2741222847       -1.7345925864        0.0845742256
 O          1.7363731663       -2.8557998428       -0.0692042871
 C          2.0516584927       -0.5118915580       -0.1587746759
 C          3.3677894026       -0.6159546511       -0.6002765749
 C          4.1207249711        0.5226457634       -0.8355233685
 C          3.5630193418        1.7749677932       -0.6318014153
 C          2.2534404669        1.8885448912       -0.1916215244
 C          1.4879383484        0.7532204556        0.0487051318
 C          0.0954780973        0.9040637430        0.5211899278
 O         -0.3889859142        2.0170411649        0.7102956830
 H         -4.1766115931        1.2919546191       -2.5552885486
 H         -5.5615334438        0.9370632774       -1.5296417942
 H         -4.5282054647       -0.3813124735       -2.1031531417
 H         -4.1459470444        2.9071793822       -0.6267524513
 H         -2.6526340935        2.5399025616        0.2410493596
 H         -4.2134563083        2.2204821916        0.9954884296
 H         -3.0393327788       -1.1591434045       -0.5172826908
 H         -2.3979589562       -0.9045594562        1.9104313051
 H         -2.1945667239        0.8352444802        1.6725457092
 H         -1.6794455697       -2.5693758517        1.0467396568
 H          3.7790448342       -1.6028095570       -0.7514455364
 H          5.1398768603        0.4309368994       -1.1757623576
 H          4.1454622976        2.6640369808       -0.8143563690
 H          1.8002841888        2.8545521025       -0.0262651389
  32
 Etot=  -51.4237442853 g norm=  0.00047865
 C         -5.0782828444        0.2972967962        1.6639045869
 C         -4.1872429128        0.5372297495        0.4851708457
 C         -4.8735156634        0.8983175541       -0.8000176693
 C         -2.8646506309        0.4346535920        0.5715037682
 C         -1.9272912430        0.6887060391       -0.5807179748
 C         -0.5176439077        0.2437881911       -0.3012875500
 C         -0.2310249382       -1.0411420481        0.0338285215
 O         -1.1476808756       -2.0095922660        0.1394472078
 C          1.1507686348       -1.5149061425        0.3122298496
 O          1.3698454850       -2.6830187640        0.5972652286
 C          2.2129221904       -0.5029025587        0.2237414831
 C          3.5300344196       -0.8718180396        0.4829730437
 C          4.5485812385        0.0640135529        0.4078411811
 C          4.2582243431        1.3769288853        0.0722100033
 C          2.9499028625        1.7535661914       -0.1889481462
 C          1.9190521189        0.8237705192       -0.1166422808
 C          0.5336716870        1.2535068692       -0.4030198397
 O          0.2827412438        2.4153772834       -0.7158902099
 H         -4.5044735216        0.0204631807        2.5443062700
 H         -5.7875561570       -0.4983957351        1.4401299066
 H         -5.6494752264        1.1971208033        1.8879240345
 H         -5.9402032711        1.0270869645       -0.6432356496
 H         -4.7286264298        0.1206182615       -1.5492460240
 H         -4.4645936429        1.8233903559       -1.2031177337
 H         -2.4006385899        0.2029675851        1.5209446627
 H         -1.8925936754        1.7611991777       -0.8002460119
 H         -2.3001375402        0.1929143148       -1.4835042459
 H         -2.0490893067       -1.6677611516       -0.0021082340
 H          3.7304291893       -1.9007829488        0.7415086763
 H          5.5654156245       -0.2323311061        0.6104140488
 H          5.0479213433        2.1089832002        0.0131398212
 H          2.7016969990        2.7709661275       -0.4522931191
  32
 Etot=  -51.4237200925 g norm=  0.00034068
 C         -5.0545603150       -0.0148486390       -1.6374351801
 C         -4.1957618260        0.3587279339       -0.4658961695
 C         -4.9544028458        0.5817660005        0.8067380181
 C         -2.8793574986        0.4957367877       -0.5973642852
 C         -1.9076453496        0.9146037090        0.4731012252
 C         -0.5175693062        0.3846628400        0.2363390984
 C         -0.2820670493       -0.9368965476        0.0271808921
 O         -1.2334134735       -1.8766740715        0.0147439725
 C          1.0804596451       -1.4877467967       -0.2030446370
 O          1.2525051659       -2.6842711324       -0.3827864606
 C          2.1827928866       -0.5156890006       -0.1985917343
 C          3.4850046233       -0.9591593827       -0.4123629165
 C          4.5404010628       -0.0619145700       -0.4140068565
 C          4.3022004527        1.2867179750       -0.2014077727
 C          3.0090203926        1.7378061573        0.0129765478
 C          1.9416309589        0.8472527026        0.0165219872
 C          0.5731218514        1.3570999149        0.2459107952
 O          0.3671058916        2.5536090427        0.4377296787
 H         -5.5774543750       -0.9495582922       -1.4395611860
 H         -4.4641790290       -0.1290927920       -2.5425078612
 H         -5.8074200020        0.7534917265       -1.8059830779
 H         -5.4841935171        1.5318246356        0.7500137443
 H         -4.3081604703        0.6116482680        1.6782929353
 H         -5.6968707962       -0.2019628680        0.9433462890
 H         -2.4339368283        0.3538774301       -1.5745091204
 H         -2.2521771841        0.5965038416        1.4609502598
 H         -1.8338731665        2.0069807483        0.4962398559
 H         -2.1235630449       -1.4874191105        0.1056727114
 H          3.6446439937       -2.0144427304       -0.5752129902
 H          5.5451551113       -0.4157867038       -0.5814933608
 H          5.1208591173        1.9887465811       -0.2014644597
 H          2.8011164784        2.7840680954        0.1806952994
  32
 Etot=  -51.4239595755 g norm=  0.00024629
 C         -4.3582746218        0.5659705150        2.0444043573
 C         -3.5423196851        0.8044978690        0.8100605969
 C         -3.4988828772        2.2284091470        0.3347479404
 C         -2.9310211802       -0.1966488865        0.1866779686
 C         -2.0865883425       -0.0748182174       -1.0560734849
 C         -0.6384860852       -0.3003181844       -0.6969240576
 C         -0.1153413961       -1.5442990700       -0.5430103712
 O         -0.7966434907       -2.6816384932       -0.7305789075
 C          1.2993674903       -1.7836807264       -0.1529362678
 O          1.7398507711       -2.9198429544       -0.0542116213
 C          2.1161092695       -0.5880483522        0.0958991322
 C          3.4455008370       -0.7369966499        0.4811701812
 C          4.2354034245        0.3756998012        0.7193612010
 C          3.7018920927        1.6465921809        0.5743075274
 C          2.3792629958        1.8048074561        0.1907007059
 C          1.5765157610        0.6959317691       -0.0514490495
 C          0.1700165570        0.8945433115       -0.4601081942
 O         -0.2924701430        2.0243069726       -0.5987613962
 H         -4.3833824653       -0.4877964863        2.3086995843
 H         -5.3777442226        0.9150560090        1.8880897917
 H         -3.9398739554        1.1263476575        2.8795741628
 H         -3.8900499229        2.8945902328        1.0982450537
 H         -4.1021951175        2.3492858713       -0.5642982961
 H         -2.4801624365        2.5318297237        0.0997890167
 H         -2.9948362899       -1.1926933082        0.6055477774
 H         -2.1790160660        0.9247170674       -1.4771711169
 H         -2.4184066646       -0.7952072008       -1.8079963663
 H         -1.7082653809       -2.5160945924       -1.0266055122
 H          3.8375197210       -1.7375333342        0.5861796681
 H          5.2641787983        0.2494665661        1.0167913942
 H          4.3134165998        2.5155691789        0.7584734714
 H          1.9447405594        2.7859770819        0.0704160152
  32
 Etot=  -51.4237299134 g norm=  0.00056314
 C         -5.0042635864       -0.4748219937        1.5411004953
 C         -4.1395170420        0.0090594526        0.4152649287
 C         -4.8472414831        0.1098355491       -0.9016351038
 C         -2.8657575684        0.3337139688        0.6245318975
 C         -1.8881326603        0.8768098038       -0.3802688034
 C         -0.4910000409        0.3490342947       -0.1746503605
 C         -0.2426697074       -0.9794009697       -0.0350108921
 O         -1.1877299589       -1.9250721296       -0.0615613228
 C          1.1265028023       -1.5297124497        0.1521528772
 O          1.3101266496       -2.7325453543        0.2668598764
 C          2.2207974233       -0.5492503456        0.1864182004
 C          3.5289232826       -0.9921582340        0.3613453250
 C          4.5769094033       -0.0870717785        0.3994981170
 C          4.3250906235        1.2688279913        0.2629448526
 C          3.0258270912        1.7195164534        0.0879233849
 C          1.9658324765        0.8211318972        0.0477144170
 C          0.5906397130        1.3306003271       -0.1400453040
 O          0.3720177810        2.5341300226       -0.2611819078
 H         -5.3718024461       -1.4780818791        1.3301789295
 H         -5.8700953730        0.1760877537        1.6509372997
 H         -4.4595370123       -0.4927842800        2.4810461972
 H         -5.4912326159        0.9885764314       -0.8994486169
 H         -5.4799135313       -0.7619973283       -1.0546796719
 H         -4.1635117040        0.1990967259       -1.7399795576
 H         -2.4663261800        0.2567979628        1.6286957709
 H         -1.8345761598        1.9666065815       -0.2889556790
 H         -2.2085133887        0.6564694861       -1.4016834695
 H         -2.0814830220       -1.5291769781       -0.0981363406
 H          3.6988781266       -2.0532280709        0.4656544494
 H          5.5865351001       -0.4405571611        0.5354852944
 H          5.1378340337        1.9770639365        0.2920937229
 H          2.8075229654        2.7714056556       -0.0208115276
  32
 Etot=  -51.4237073680 g norm=  0.00022081
 C         -4.9455499716        0.1888108423       -1.6695448914
 C         -4.0977718615        0.1644507269       -0.4323326766
 C         -4.8160928546       -0.3151198330        0.7922732083
 C         -2.8305787048        0.5693476217       -0.4668835331
 C         -1.8684605637        0.6585829324        0.6855083588
 C         -0.4659610441        0.2678287471        0.2936612467
 C         -0.2059404699       -0.9060225275       -0.3388149966
 O         -1.1419983307       -1.8024796869       -0.6671786280
 C          1.1668698398       -1.3282552452       -0.7256385966
 O          1.3619655154       -2.3983070066       -1.2828559290
 C          2.2497042179       -0.3901148878       -0.3983029008
 C          3.5599204448       -0.7152976002       -0.7385543598
 C          4.5976323576        0.1538064507       -0.4443888569
 C          4.3333193463        1.3562409871        0.1920579705
 C          3.0319983599        1.6885784081        0.5355170826
 C          1.9822179813        0.8244233984        0.2464325262
 C          0.6044319356        1.2051521322        0.6247805921
 O          0.3749869796        2.2695107252        1.1951525068
 H         -5.8176907234        0.8207849408       -1.5095760725
 H         -5.3038788362       -0.8125952449       -1.9032589490
 H         -4.3912037286        0.5694313180       -2.5229723622
 H         -5.4052213854       -1.1994155968        0.5574295936
 H         -5.5034509065        0.4575087091        1.1346760991
 H         -4.1419795015       -0.5493194328        1.6101443815
 H         -2.4234541693        0.9270521193       -1.4049043816
 H         -2.1954528207        0.0386877717        1.5238948560
 H         -1.8239994815        1.6915420640        1.0458119834
 H         -2.0389244255       -1.4629445329       -0.4780396498
 H          3.7393978490       -1.6572476454       -1.2347414955
 H          5.6089349817       -0.1080627201       -0.7117005859
 H          5.1380664534        2.0360439377        0.4230013209
 H          2.8042709704        2.6197414776        1.0327417045
  32
 Etot=  -51.4237180904 g norm=  0.00042894
 C         -5.0468663443       -0.7704131160        1.1132660960
 C         -4.1637367222       -0.0226153459        0.1588900047
 C         -4.8653030661        0.4573462171       -1.0746957809
 C         -2.8812804459        0.1924942555        0.4416281299
 C         -1.8876334135        0.9669224447       -0.3799477271
 C         -0.4920991266        0.4050079399       -0.2883517536
 C         -0.2360222429       -0.9110541237       -0.5080839470
 O         -1.1726561430       -1.8154173535       -0.8139225681
 C          1.1327355391       -1.4890488356       -0.4441616241
 O          1.3238971760       -2.6777292399       -0.6546724798
 C          2.2186251467       -0.5516087608       -0.1239219352
 C          3.5270481006       -1.0215684683       -0.0521215350
 C          4.5674871416       -0.1574181777        0.2475217537
 C          4.3076855750        1.1841686284        0.4785018636
 C          3.0078090048        1.6613492710        0.4102611685
 C          1.9555066241        0.8042579165        0.1095671622
 C          0.5797537741        1.3413772264        0.0421289667
 O          0.3528863149        2.5305708442        0.2550306989
 H         -5.8825589498       -0.1412701108        1.4156769222
 H         -4.5018214356       -1.0765564821        2.0019558368
 H         -5.4596092886       -1.6560702009        0.6322494991
 H         -5.5268474904        1.2840292590       -0.8160816146
 H         -5.4808818326       -0.3393870304       -1.4891160015
 H         -4.1781693498        0.8054180422       -1.8398308650
 H         -2.4877288346       -0.1690218512        1.3840203089
 H         -1.8399968926        1.9997540249       -0.0192866509
 H         -2.1901460403        1.0072265180       -1.4294821305
 H         -2.0677924759       -1.4256394128       -0.7721347256
 H          3.7035035942       -2.0709024320       -0.2349540230
 H          5.5776087262       -0.5312375161        0.3003831241
 H          5.1144447516        1.8607288686        0.7118922394
 H          2.7834991039        2.7027216096        0.5870211231
  32
 Etot=  -51.4239676935 g norm=  0.00042852
 C         -4.5615017961        0.5966606232        1.8108558713
 C         -3.7179946662        0.7199391906        0.5782436056
 C         -3.7380939877        2.0687504634       -0.0816945122
 C         -3.0281104304       -0.3147238245        0.1112650185
 C         -2.1497073355       -0.3058549497       -1.1135961595
 C         -0.7068789961       -0.4263192951       -0.6896535110
 C         -0.1335985986       -1.6222241013       -0.3963971980
 O         -0.7557892041       -2.8044964691       -0.4864081848
 C          1.2779716443       -1.7529139629        0.0523224142
 O          1.7683581687       -2.8514584848        0.2695225289
 C          2.0292640819       -0.5000191181        0.2082122396
 C          3.3502944494       -0.5454467750        0.6450248982
 C          4.0788430761        0.6226659205        0.7982203679
 C          3.4919546365        1.8460211570        0.5158051190
 C          2.1773816122        1.9011126839        0.0794379697
 C          1.4358928725        0.7357872441       -0.0783117677
 C          0.0368585811        0.8243801732       -0.5469506055
 O         -0.4724469810        1.9111458865       -0.8093302400
 H         -4.5361115433       -0.4127999775        2.2127060379
 H         -5.5931060369        0.8599408119        1.5825289595
 H         -4.2041385770        1.2862855499        2.5746083904
 H         -4.2075520523        2.8016866698        0.5680648221
 H         -4.3004225956        2.0298064963       -1.0138151828
 H         -2.7284409038        2.4054048467       -0.3107375560
 H         -3.0490172496       -1.2496693187        0.6563712702
 H         -2.2670033986        0.6324509657       -1.6527581850
 H         -2.4293581250       -1.1228935461       -1.7834712327
 H         -1.6666763527       -2.7136990780       -0.8151538778
 H          3.7846380311       -1.5106064248        0.8584749656
 H          5.1014192363        0.5764477281        1.1374773849
 H          4.0554856759        2.7578753741        0.6342646549
 H          1.7017451158        2.8436368263       -0.1471153175
  32
 Etot=  -51.4239747250 g norm=  0.00026115
 C         -4.5540154709        0.5339035271        1.7894783872
 C         -3.7062725958        0.7148779942        0.5667176505
 C         -3.7179314205        2.0951138341       -0.0247588658
 C         -3.0198935389       -0.2983539027        0.0503738110
 C         -2.1368349410       -0.2316325984       -1.1694338051
 C         -0.6969017682       -0.3825017181       -0.7456995845
 C         -0.1321623148       -1.5951618984       -0.5103606478
 O         -0.7597647575       -2.7678126104       -0.6654728773
 C          1.2744893394       -1.7566000465       -0.0563123843
 O          1.7559449735       -2.8675375447        0.1125562165
 C          2.0319034171       -0.5176934013        0.1672129749
 C          3.3488279815       -0.5929650118        0.6122807431
 C          4.0831102176        0.5615255619        0.8283905174
 C          3.5061407493        1.8009856580        0.6011282709
 C          2.1955344021        1.8858629974        0.1576441494
 C          1.4483192003        0.7344678969       -0.0628514053
 C          0.0532338267        0.8548676816       -0.5360356961
 O         -0.4476563118        1.9564392455       -0.7480913096
 H         -5.5841324835        0.8115313198        1.5715427859
 H         -4.1966826684        1.1838693858        2.5871279426
 H         -4.5331295781       -0.4940409057        2.1415080012
 H         -2.7056168405        2.4408337613       -0.2277651976
 H         -4.1915739854        2.7953783535        0.6570881752
 H         -4.2722523560        2.1048759324       -0.9625353007
 H         -3.0470147675       -1.2595619401        0.5473422164
 H         -2.2461815270        0.7340689056       -1.6597220306
 H         -2.4185062347       -1.0111023341       -1.8817120795
 H         -1.6674476293       -2.6556026173       -0.9964533226
 H          3.7756551519       -1.5702568196        0.7807785701
 H          5.1026380703        0.4921966203        1.1727321410
 H          4.0741537585        2.7023277080        0.7683710412
 H          1.7277178590        2.8414227313       -0.0267359551
  32
 Etot=  -51.4237472172 g norm=  0.00039954
 C         -5.1310876102       -0.4157113273        1.4053829876
 C         -4.2171065293        0.2035908728        0.3942148651
 C         -4.8821849308        0.8245836253       -0.8003082735
 C         -2.8965721067        0.2036849071        0.5514023139
 C         -1.9277253841        0.8351311311       -0.4130893764
 C         -0.5246966342        0.3100115862       -0.2674421216
 C         -0.2538896240       -1.0202742820       -0.3200259273
 O         -1.1819930209       -1.9661106771       -0.5028001884
 C          1.1215049677       -1.5708650509       -0.1922927820
 O          1.3262971340       -2.7738962176       -0.2599342328
 C          2.1956474209       -0.5895180669        0.0160602443
 C          3.5076691107       -1.0333924283        0.1560539341
 C          4.5374542764       -0.1281310236        0.3533994338
 C          4.2634414712        1.2291466191        0.4117265510
 C          2.9601645419        1.6808148423        0.2730575470
 C          1.9181698316        0.7822711170        0.0749990411
 C          0.5381809474        1.2928546823       -0.0696015328
 O          0.3005663701        2.4980027534       -0.0242484400
 H         -4.5722728920       -0.8728863321        2.2174780711
 H         -5.7522506348       -1.1749883521        0.9324167504
 H         -5.7936212625        0.3421710709        1.8209769554
 H         -4.6376227091        0.2775651632       -1.7103307492
 H         -4.5490491995        1.8524056631       -0.9322423826
 H         -5.9616206036        0.8211551858       -0.6816175172
 H         -2.4598988898       -0.2211806715        1.4457859085
 H         -1.8873271660        1.9167543562       -0.2448316815
 H         -2.2698647608        0.6857958521       -1.4420115685
 H         -2.0797020600       -1.5848097164       -0.5230300922
 H          3.6952112912       -2.0955094708        0.1064083544
 H          5.5502173126       -0.4826214342        0.4605878701
 H          5.0620895170        1.9375651652        0.5645553530
 H          2.7248079571        2.7338550215        0.3144845895
  32
 Etot=  -51.4237067639 g norm=  0.00028117
 C         -5.0087819246       -0.7074266679        1.3086567095
 C         -4.1364324915       -0.0851342346        0.2590264984
 C         -4.8365913177        0.1769078016       -1.0393579036
 C         -2.8647860533        0.2119014691        0.5161446831
 C         -1.8839420906        0.8833303313       -0.4050054314
 C         -0.4803161021        0.3558440221       -0.2504466005
 C         -0.2106932769       -0.9755731088       -0.2726000509
 O         -1.1400351209       -1.9254481514       -0.4213443761
 C          1.1667671700       -1.5229285789       -0.1479629122
 O          1.3700174882       -2.7275015051       -0.1838891911
 C          2.2446425318       -0.5367236089        0.0122871654
 C          3.5594654758       -0.9767247587        0.1375706183
 C          4.5923789925       -0.0665779228        0.2910186198
 C          4.3187662598        1.2917241953        0.3200864192
 C          3.0127165509        1.7395400204        0.1961596252
 C          1.9676485653        0.8360684764        0.0414386281
 C          0.5847729492        1.3428020985       -0.0884002684
 O          0.3466668868        2.5484107632       -0.0605684713
 H         -5.3790714875       -1.6732417699        0.9679033416
 H         -5.8729453591       -0.0725660454        1.4975788328
 H         -4.4693748516       -0.8488569771        2.2411942637
 H         -5.5307638062        1.0072372323       -0.9146165145
 H         -5.4171099926       -0.6954914089       -1.3332577181
 H         -4.1518957096        0.4304447728       -1.8424619402
 H         -2.4725593206        0.0114672836        1.5060206625
 H         -1.8480496703        1.9552347332       -0.1839864510
 H         -2.1903477214        0.7810641270       -1.4492001483
 H         -2.0395892758       -1.5417462357       -0.4206575013
 H          3.7467002946       -2.0397090054        0.1117632571
 H          5.6072589077       -0.4180612461        0.3872171944
 H          5.1197773875        2.0038962538        0.4391031560
 H          2.7773595142        2.7932003570        0.2164596311
  32
 Etot=  -51.4237400047 g norm=  0.00026498
 C         -5.0215363600       -0.4087869092        1.5130949841
 C         -4.1541728444        0.0514677007        0.3793501770
 C         -4.8582694655        0.1217482028       -0.9414494272
 C         -2.8814301015        0.3821670655        0.5849121287
 C         -1.9016386837        0.9040810309       -0.4288796498
 C         -0.5045336930        0.3817704331       -0.2093731808
 C         -0.2551638611       -0.9429706772       -0.0397938228
 O         -1.1986768019       -1.8904981606       -0.0473423765
 C          1.1140422833       -1.4871615252        0.1647334279
 O          1.2977294445       -2.6857695170        0.3170619832
 C          2.2084005609       -0.5061756325        0.1681545396
 C          3.5175625922       -0.9447057040        0.3465620036
 C          4.5658103776       -0.0391687011        0.3553278658
 C          4.3131924364        1.3129894703        0.1862441759
 C          3.0128350734        1.7593421394        0.0084563940
 C          1.9525934423        0.8603363698       -0.0030187180
 C          0.5761652705        1.3650135910       -0.1942497807
 O          0.3558628586        2.5659672201       -0.3360773110
 H         -5.3793626335       -1.4205392445        1.3274966642
 H         -5.8933530407        0.2373840964        1.6001755341
 H         -4.4822489273       -0.3967958422        2.4562232225
 H         -5.5034746171        0.9993750222       -0.9612148883
 H         -5.4891091162       -0.7543105159       -1.0763437727
 H         -4.1722215187        0.1927949439       -1.7796679401
 H         -2.4853107064        0.3301486828        1.5920018055
 H         -1.8487194551        1.9955689585       -0.3600841798
 H         -2.2197147433        0.6625087589       -1.4461801977
 H         -2.0932430387       -1.4978322572       -0.0954834692
 H          3.6880914492       -2.0028064794        0.4769908539
 H          5.5761889432       -0.3894174865        0.4940820060
 H          5.1261585152        2.0215243181        0.1922701533
 H          2.7938166992        2.8082243958       -0.1250980353
  32
 Etot=  -51.4236905752 g norm=  0.00045405
 C         -4.9033599778       -0.0148543703        1.7634189209
 C         -4.0690620747        0.0727095692        0.5195918938
 C         -4.7958774313       -0.3215548123       -0.7298838447
 C         -2.8068384153        0.4907114367        0.5739971275
 C         -1.8598567757        0.6906951517       -0.5769598780
 C         -0.4465564926        0.2852367694       -0.2435003530
 C         -0.1598309760       -0.9337696418        0.2830834870
 O         -1.0783260941       -1.8659481071        0.5576274219
 C          1.2260373901       -1.3709058737        0.6002086050
 O          1.4440467251       -2.4778201724        1.0700393452
 C          2.2933666187       -0.4025230004        0.3121684259
 C          3.6162485997       -0.7467103948        0.5758967635
 C          4.6399620160        0.1488065372        0.3133451194
 C          4.3487065996        1.3971763766       -0.2134013136
 C          3.0343176934        1.7495439170       -0.4781852364
 C          1.9985100019        0.8587624358       -0.2211225904
 C          0.6066634815        1.2604626753       -0.5166328629
 O          0.3519442326        2.3716981250       -0.9761495330
 H         -4.3389873828        0.2846845607        2.6422264010
 H         -5.2634594359       -1.0323087661        1.9075879227
 H         -5.7747066213        0.6316631357        1.6718946088
 H         -5.2959573152       -1.2774778044       -0.5842381608
 H         -4.1415667250       -0.3954475515       -1.5924271496
 H         -5.5628367258        0.4194935279       -0.9513339822
 H         -2.3943574557        0.7769663217        1.5340875110
 H         -1.8319536207        1.7519711079       -0.8451967235
 H         -2.1906071959        0.1424001030       -1.4623281249
 H         -1.9830769709       -1.5238158813        0.4174699173
 H          3.8167268947       -1.7246196789        0.9872458050
 H          5.6613515704       -0.1283321111        0.5200599198
 H          5.1425068058        2.0976707489       -0.4188731262
 H          2.7855147095        2.7166671768       -0.8889810209
  32
 Etot=  -51.4250123018 g norm=  0.00026777
 C         -4.7957508005       -0.4901274825        0.9463552902
 C         -3.5398296186        0.1217036903        0.4058275333
 C         -2.6175155646        0.6937845753        1.4394982879
 C         -3.2743410944        0.1244342075       -0.8980826746
 C         -2.0533197747        0.7286726307       -1.5429601347
 C         -0.7399753721        0.2606413897       -0.9650567962
 C         -0.4807455308       -1.0527126511       -0.7346732271
 O         -1.3436527900       -2.0436770158       -0.9820431316
 C          0.8107628141       -1.5358759125       -0.1786155979
 O          0.9976854087       -2.7248804970        0.0349151527
 C          1.8300687890       -0.5099663774        0.0830548569
 C          3.0748884534       -0.8934589249        0.5740615815
 C          4.0527710608        0.0552252215        0.8245205524
 C          3.7919861216        1.3958857241        0.5895750307
 C          2.5536329666        1.7877963166        0.1050952653
 C          1.5658764014        0.8447367838       -0.1542961197
 C          0.2543035892        1.2907094136       -0.6699743596
 O          0.0138814971        2.4848156018       -0.8375814714
 H         -4.5494410698       -1.2583860899        1.6774869289
 H         -5.3960238501       -0.9332672113        0.1568565556
 H         -5.3913040425        0.2678617778        1.4525694039
 H         -1.9664242832       -0.0875506305        1.8344817849
 H         -3.1898798501        1.1008085895        2.2698432638
 H         -1.9893698482        1.4801309312        1.0283571171
 H         -4.0056150841       -0.2890879572       -1.5797489181
 H         -2.0734239559        1.8188780081       -1.4430743414
 H         -2.0645301744        0.5073693606       -2.6135324995
 H         -2.2064963504       -1.6947831955       -1.2788730359
 H          3.2529449284       -1.9437667951        0.7498521554
 H          5.0148156049       -0.2527173668        1.2018429249
 H          4.5504950851        2.1376751152        0.7824760554
 H          2.3297850774        2.8269468018       -0.0841574538
  32
 Etot=  -51.4236269272 g norm=  0.00042377
 C         -5.0390953453       -0.4829486105        1.4676520448
 C         -4.1885514088        0.1109944543        0.3843641894
 C         -4.9540359237        0.5553235649       -0.8241287931
 C         -2.8731618974        0.2326848993        0.5364035674
 C         -1.9068519387        0.8456937006       -0.4426979334
 C         -0.5045747027        0.3223601216       -0.2738261791
 C         -0.2334782506       -1.0087311681       -0.2944385420
 O         -1.1579191965       -1.9592955648       -0.4680234496
 C          1.1405137602       -1.5557437189       -0.1353334709
 O          1.3455287233       -2.7600981992       -0.1684642209
 C          2.2126513810       -0.5693905477        0.0591147576
 C          3.5234699864       -1.0091778448        0.2218579519
 C          4.5511023109       -0.0989961985        0.4074697233
 C          4.2763048015        1.2591370663        0.4313303705
 C          2.9743154288        1.7068145035        0.2696124736
 C          1.9345318206        0.8032901465        0.0828363845
 C          0.5558633804        1.3097304353       -0.0861649773
 O          0.3176286518        2.5154734850       -0.0700252955
 H         -4.4406839950       -0.7774092202        2.3254387042
 H         -5.5707633087       -1.3567975782        1.0941640449
 H         -5.7846921066        0.2403845378        1.7938442652
 H         -5.6269082827       -0.2347158745       -1.1530528948
 H         -4.3063212837        0.8348899157       -1.6485683503
 H         -5.5640090065        1.4205280686       -0.5670156363
 H         -2.4242124370       -0.0826992669        1.4703486249
 H         -1.8650662086        1.9293948619       -0.2912094549
 H         -2.2338421172        0.6770775155       -1.4725658518
 H         -2.0562703771       -1.5816419191       -0.5141976271
 H          3.7117705050       -2.0720474266        0.1991700460
 H          5.5628342709       -0.4503677417        0.5327500975
 H          5.0732040022        1.9713750901        0.5752891977
 H          2.7380628659        2.7603541292        0.2848345175
  32
 Etot=  -51.4237117503 g norm=  0.00038371
 C         -5.0484919439       -0.5592699496        1.3694465746
 C         -4.1674189469        0.0302721178        0.3083109444
 C         -4.8626557088        0.2770558749       -0.9955503490
 C         -2.8920067050        0.3148035908        0.5608909156
 C         -1.8996066163        0.9527225068       -0.3714086016
 C         -0.5080471448        0.3953561302       -0.2113797438
 C         -0.2695674055       -0.9421136185       -0.2163553803
 O         -1.2208869262       -1.8716171934       -0.3540597272
 C          1.0945423546       -1.5198571426       -0.0816841309
 O          1.2696408952       -2.7292135621       -0.1013754112
 C          2.1946960485       -0.5570492035        0.0688060257
 C          3.4985726550       -1.0259249116        0.2036970908
 C          4.5520614084       -0.1382038689        0.3479926985
 C          4.3102419144        1.2263765018        0.3581967137
 C          3.0153410630        1.7029143372        0.2246683544
 C          1.9498397559        0.8221033341        0.0792393422
 C          0.5793916628        1.3592524280       -0.0596737157
 O          0.3694263512        2.5703905582       -0.0478539823
 H         -4.5107921114       -0.6912210394        2.3042012803
 H         -5.4332063490       -1.5256039653        1.0471226470
 H         -5.9028611211        0.0917872906        1.5468710406
 H         -4.1729124759        0.4901813278       -1.8060474115
 H         -5.5328336366        1.1295697102       -0.8920657719
 H         -5.4677254309       -0.5860848525       -1.2655523143
 H         -2.5030760227        0.1265073554        1.5542997630
 H         -1.8392313412        2.0261470771       -0.1638062350
 H         -2.2108730467        0.8444992614       -1.4134788386
 H         -2.1110432079       -1.4666021157       -0.3582766958
 H          3.6609138594       -2.0932039900        0.1927149737
 H          5.5582497343       -0.5119021082        0.4514998145
 H          5.1274524198        1.9212900609        0.4695670953
 H          2.8046692270        2.7619695652        0.2303352670
  32
 Etot=  -51.4237107993 g norm=  0.00044800
 C         -5.0353183502       -0.7647312893        1.1756957350
 C         -4.1657901045       -0.0161188718        0.2093176004
 C         -4.8781684148        0.4343240523       -1.0292572414
 C         -2.8859430642        0.2205902233        0.4861025130
 C         -1.9010803026        0.9951849485       -0.3459525456
 C         -0.5060232958        0.4295800548       -0.2676998808
 C         -0.2560524925       -0.8866019444       -0.4931346713
 O         -1.1973420130       -1.7870897782       -0.7950441917
 C          1.1115269642       -1.4691880235       -0.4413744224
 O          1.2979673194       -2.6561096262       -0.6647829127
 C          2.2009802531       -0.5388238099       -0.1136011259
 C          3.5066910733       -1.0159719261       -0.0391449997
 C          4.5503247377       -0.1590260622        0.2697092764
 C          4.2966533683        1.1827909976        0.5060723909
 C          2.9998336815        1.6673715235        0.4337834335
 C          1.9441088321        0.8172986307        0.1251697115
 C          0.5712900911        1.3618023007        0.0563065196
 O          0.3510421880        2.5530767608        0.2645422965
 H         -5.4511662096       -1.6523801127        0.7012785482
 H         -5.8694188014       -0.1378885937        1.4872454123
 H         -4.4787968741       -1.0674666328        2.0583197034
 H         -5.5941073149        1.2135151126       -0.7712292970
 H         -5.4367185518       -0.3942350099       -1.4609659045
 H         -4.2041413522        0.8333743077       -1.7802698273
 H         -2.4856067103       -0.1243300503        1.4316070659
 H         -1.8477154314        2.0272892431        0.0159082645
 H         -2.2135735002        1.0367350898       -1.3923300519
 H         -2.0913277003       -1.3956065390       -0.7445851455
 H          3.6780789678       -2.0651961634       -0.2271820799
 H          5.5579211678       -0.5390143756        0.3255214948
 H          5.1060567397        1.8535773723        0.7467647022
 H          2.7801090845        2.7090881358        0.6140036177
  32
 Etot=  -51.4239635826 g norm=  0.00038425
 C         -4.5351529994        0.1950618655       -1.7714964886
 C         -3.6546385431        0.6309747502       -0.6396293583
 C         -3.6105535496        2.1119316824       -0.3950878276
 C         -2.9913720284       -0.2549869899        0.0949870057
 C         -2.0815818774        0.0660632958        1.2532567887
 C         -0.6514226567       -0.1972480284        0.8502469336
 C         -0.1166309455       -1.4457437313        0.8512876987
 O         -0.7673615053       -2.5488086270        1.2421810282
 C          1.2782069122       -1.7277884905        0.4202128126
 O          1.7307791030       -2.8626424520        0.4614234185
 C          2.0613513285       -0.5741619660       -0.0428481776
 C          3.3706976980       -0.7665904965       -0.4748385716
 C          4.1291198560        0.3061729768       -0.9137428532
 C          3.5838986640        1.5803763441       -0.9243025703
 C          2.2809537996        1.7816649933       -0.4962673721
 C          1.5097216831        0.7130346392       -0.0535462980
 C          0.1229232456        0.9567098025        0.3960595891
 O         -0.3518321665        2.0898129262        0.3897604960
 H         -4.5542881616       -0.8871791798       -1.8679259039
 H         -4.1763703327        0.6232442554       -2.7066520139
 H         -5.5508918151        0.5530285398       -1.6104995990
 H         -2.5869470760        2.4565941024       -0.2594121334
 H         -4.1738826937        2.3670684357        0.5019575146
 H         -4.0469938475        2.6474994480       -1.2333802956
 H         -3.0614005433       -1.3045425186       -0.1598307190
 H         -2.3572417558       -0.5327368375        2.1250229056
 H         -2.1695667638        1.1176097775        1.5205950857
 H         -1.6641930573       -2.3495137264        1.5614382456
 H          3.7723140328       -1.7686506911       -0.4562080296
 H          5.1424441629        0.1466190302       -1.2461230106
 H          4.1709279907        2.4183680788       -1.2651416474
 H          1.8376522468        2.7662711733       -0.4960617645
  32
 Etot=  -51.4249824527 g norm=  0.00031200
 C         -4.7105181686       -0.1943506829       -1.2779747231
 C         -3.4773528648        0.2839208840       -0.5751556969
 C         -2.5639248944        1.1339641419       -1.4056074317
 C         -3.2222339959       -0.0522156355        0.6867798181
 C         -2.0188846704        0.3867899408        1.4815990480
 C         -0.6962500243        0.0987606572        0.8139660533
 C         -0.4129677334       -1.1155147413        0.2750719078
 O         -1.2578573901       -2.1518351218        0.2750755744
 C          0.8864042553       -1.4273379581       -0.3765210993
 O          1.1007831227       -2.5314298385       -0.8552457575
 C          1.8772345543       -0.3421945048       -0.4017334024
 C          3.1206371376       -0.5662821994       -0.9860879045
 C          4.0708411373        0.4412118837       -1.0216859864
 C          3.7843643308        1.6817358668       -0.4742618497
 C          2.5481256463        1.9148160096        0.1083127241
 C          1.5872259920        0.9112319717        0.1517238695
 C          0.2760127492        1.1892265694        0.7749196605
 O          0.0176231182        2.2995328925        1.2354593708
 H         -4.4362274173       -0.7193434208       -2.1916091071
 H         -5.3322469520        0.6545900276       -1.5585157780
 H         -5.2945478969       -0.8606245597       -0.6492540626
 H         -1.9666512252        1.8032181649       -0.7914908531
 H         -3.1409642005        1.7279782251       -2.1103127940
 H         -1.8832825718        0.5035584961       -1.9798167607
 H         -3.9475823391       -0.6475735832        1.2248508999
 H         -2.0341688827       -0.1007690758        2.4599163357
 H         -2.0560731379        1.4660136225        1.6616236655
 H         -2.1286900742       -1.8965210070        0.6366033464
 H          3.3187389384       -1.5407351445       -1.4066036791
 H          5.0312316965        0.2570108434       -1.4761312945
 H          4.5208260214        2.4691171104       -0.5003858233
 H          2.3038370178        2.8744616576        0.5388485525
  32
 Etot=  -51.4237163205 g norm=  0.00023912
 C         -5.0484177628       -0.3508947035        1.5384470008
 C         -4.1596384816        0.0430150577        0.3965363906
 C         -4.8405448532        0.0504420739       -0.9383396652
 C         -2.8873621310        0.3755343008        0.6036017482
 C         -1.8940101411        0.8415606648       -0.4237412455
 C         -0.4979921772        0.3368389175       -0.1614845360
 C         -0.2476535932       -0.9711424258        0.1073804232
 O         -1.1892976768       -1.9187232757        0.1669724939
 C          1.1212314382       -1.4958773226        0.3591934842
 O          1.3041954854       -2.6767442170        0.6152078951
 C          2.2163479933       -0.5193646240        0.2759585949
 C          3.5265188602       -0.9441082576        0.4785788542
 C          4.5759314180       -0.0430225766        0.4022765146
 C          4.3232236005        1.2910426150        0.1245519652
 C          3.0215977228        1.7239907704       -0.0756575353
 C          1.9603019624        0.8290551999       -0.0035718339
 C          0.5823980709        1.3189690697       -0.2207102705
 O          0.3607411374        2.5069288875       -0.4455760038
 H         -5.4046450370       -1.3715376390        1.4046341057
 H         -5.9204464738        0.3002257183        1.5716979634
 H         -4.5265718642       -0.2849628019        2.4891417130
 H         -5.5226358678       -0.7932206575       -1.0153703965
 H         -4.1390569506        0.0110602002       -1.7662288304
 H         -5.4281385323        0.9619683732       -1.0408835439
 H         -2.5053439995        0.3730407225        1.6173680932
 H         -1.8440391001        1.9353757320       -0.4162265941
 H         -2.1994820422        0.5438509000       -1.4301085940
 H         -2.0845881623       -1.5325746374        0.0843768092
 H          3.6969674570       -1.9882096550        0.6941282218
 H          5.5871464937       -0.3826175323        0.5598831908
 H          5.1371184671        1.9959155482        0.0639493684
 H          2.8024613268        2.7590979921       -0.2913939027
  32
 Etot=  -51.4237164599 g norm=  0.00022043
 C         -5.1108700812       -0.7010369120        1.0461008115
 C         -4.2014852223        0.0997702253        0.1622092052
 C         -4.8734884794        0.6774066497       -1.0462531352
 C         -2.9217486599        0.2783369979        0.4813451296
 C         -1.9068211540        1.0986254233       -0.2655564299
 C         -0.5251863605        0.4971125494       -0.2266338935
 C         -0.3033408816       -0.8048745904       -0.5449286649
 O         -1.2633112469       -1.6619092028       -0.9080506969
 C          1.0516010206       -1.4186368828       -0.5370397049
 O          1.2114835142       -2.5922832218       -0.8382561981
 C          2.1621497633       -0.5347051726       -0.1559205291
 C          3.4585783426       -1.0411501346       -0.1270418193
 C          4.5218016023       -0.2277779267        0.2292937997
 C          4.2970821121        1.0992877836        0.5595888860
 C          3.0095930478        1.6127044481        0.5337378103
 C          1.9344850909        0.8065436781        0.1777775557
 C          0.5723922414        1.3811169106        0.1591411925
 O          0.3772147267        2.5576809618        0.4565552009
 H         -5.9458180362       -0.0840414582        1.3742800453
 H         -4.5869332120       -1.0731493021        1.9222204123
 H         -5.5232990797       -1.5472044194        0.4983465898
 H         -5.4738351730        1.5375814603       -0.7507950355
 H         -5.5437738424       -0.0567116809       -1.4889386986
 H         -4.1665195918        1.0071529361       -1.8014787297
 H         -2.5476120778       -0.1555435390        1.4008774689
 H         -1.8348485185        2.0929751363        0.1874337085
 H         -2.2060838781        1.2426715994       -1.3069728342
 H         -2.1490008964       -1.2555137903       -0.8285111584
 H          3.6073728138       -2.0783053034       -0.3876730038
 H          5.5221450004       -0.6300207999        0.2482769702
 H          5.1218788249        1.7362673144        0.8370458505
 H          2.8122130605        2.6433191193        0.7884434171
  32
 Etot=  -51.4249691742 g norm=  0.00031212
 C         -4.8263618529       -0.7983248110        0.6982771336
 C         -3.5672227830       -0.0503763223        0.3844212184
 C         -2.6544690425        0.1726564705        1.5520362282
 C         -3.2907058176        0.3562317643       -0.8520310974
 C         -2.0651626873        1.1298948747       -1.2654476438
 C         -0.7567477344        0.4992230061       -0.8555507977
 C         -0.4993502167       -0.8206341003       -1.0480244372
 O         -1.3597316080       -1.6817989124       -1.6015689410
 C          0.7872812180       -1.4572960826       -0.6604920124
 O          0.9712351100       -2.6542535407       -0.8260916850
 C          1.8056812430       -0.5676437317       -0.0848985185
 C          3.0468351207       -1.0887673939        0.2698039506
 C          4.0238884432       -0.2682060867        0.8095988605
 C          3.7664470785        1.0798959696        1.0014889769
 C          2.5317722607        1.6070185110        0.6554727814
 C          1.5443895759        0.7941786374        0.1106410765
 C          0.2353281000        1.3815874468       -0.2441252193
 O         -0.0043152310        2.5678967664       -0.0277841024
 H         -5.4160720160       -0.9793959437       -0.1960525742
 H         -5.4302807765       -0.2306068918        1.4047373551
 H         -4.5850219902       -1.7532070585        1.1627379536
 H         -3.2340178285        0.2995475618        2.4633939038
 H         -2.0274048148        1.0494468688        1.4112553245
 H         -2.0025794785       -0.6914923903        1.6890859232
 H         -4.0158454090        0.1765157234       -1.6344573231
 H         -2.0849852603        2.1325013167       -0.8257781518
 H         -2.0684420696        1.2592089433       -2.3509211743
 H         -2.2200377670       -1.2559203566       -1.7818620050
 H          3.2226244460       -2.1421263760        0.1109857876
 H          4.9831979754       -0.6811676533        1.0781526331
 H          4.5246061050        1.7225031401        1.4203242009
 H          2.3093653005        2.6539008471        0.7996896067
  32
 Etot=  -51.4236835230 g norm=  0.00031996
 C         -5.0407930151       -0.7268975571        1.1793867487
 C         -4.1481768517       -0.0614951040        0.1743690313
 C         -4.8260228662        0.2698262165       -1.1202821573
 C         -2.8786853898        0.2138682689        0.4642934492
 C         -1.8833296028        0.9285642771       -0.4067653015
 C         -0.4844570483        0.3830363538       -0.2729175837
 C         -0.2223421955       -0.9469026416       -0.3637219254
 O         -1.1556126729       -1.8827428823       -0.5669388485
 C          1.1512861728       -1.5082320007       -0.2597674521
 O          1.3467223591       -2.7113640062       -0.3481703625
 C          2.2355299820       -0.5371642135       -0.0560656555
 C          3.5485583054       -0.9898308085        0.0399887167
 C          4.5875770256       -0.0936752541        0.2302750962
 C          4.3218919458        1.2630482852        0.3266807139
 C          3.0175366582        1.7232672938        0.2339274178
 C          1.9664703352        0.8339388942        0.0422517289
 C          0.5855393388        1.3533787447       -0.0523339609
 O          0.3529750242        2.5560987779        0.0490817789
 H         -5.9055194246       -0.0969927115        1.3813071020
 H         -4.5186197192       -0.9122914028        2.1138781029
 H         -5.4090663320       -1.6747092526        0.7896839211
 H         -5.4784956146        1.1304993176       -0.9774301852
 H         -5.4463369109       -0.5646289136       -1.4412949059
 H         -4.1239585285        0.5103457807       -1.9125005159
 H         -2.5012312471       -0.0399918593        1.4475531392
 H         -1.8414311244        1.9851533493       -0.1219715002
 H         -2.1816752040        0.8923038757       -1.4576039597
 H         -2.0534125911       -1.4953444629       -0.5511176910
 H          3.7294652347       -2.0514445993       -0.0371029713
 H          5.6009837947       -0.4548111429        0.3032038205
 H          5.1276580190        1.9643727266        0.4742553093
 H          2.7882262599        2.7759027575        0.3073053625
  32
 Etot=  -51.4249912466 g norm=  0.00040041
 C         -4.5954593004        0.2672176364        1.6262018336
 C         -3.4083547339        0.5118963028        0.7459774587
 C         -2.4301193003        1.5204746432        1.2681295855
 C         -3.2455199623       -0.1445875664       -0.3995869825
 C         -2.0992544124        0.0432482652       -1.3606529018
 C         -0.7334006933       -0.0879308350       -0.7323284928
 C         -0.4096651217       -1.1333522871        0.0720891381
 O         -1.2478149107       -2.1263433166        0.3873818746
 C          0.9326389673       -1.2905647566        0.6917546689
 O          1.1854048285       -2.2468755049        1.4098024628
 C          1.9167049341       -0.2427994080        0.3854402750
 C          3.1954727085       -0.3267420044        0.9289983125
 C          4.1398170091        0.6489874264        0.6546352381
 C          3.8125185991        1.7170388008       -0.1655683468
 C          2.5411727360        1.8097879861       -0.7105552619
 C          1.5853197422        0.8365027243       -0.4432282472
 C          0.2359712988        0.9639383884       -1.0329784033
 O         -0.0552419953        1.9242972643       -1.7433848608
 H         -5.1767721653        1.1821929617        1.7302547192
 H         -4.2652303943       -0.0288845474        2.6206761998
 H         -5.2387534821       -0.5090213788        1.2218829518
 H         -1.8738823174        1.9959081711        0.4642360222
 H         -1.7145428174        1.0384743556        1.9359674609
 H         -2.9494350973        2.2890374362        1.8357136979
 H         -4.0117308154       -0.8398214090       -0.7156313240
 H         -2.1460173866        1.0383998771       -1.8147502782
 H         -2.1861029666       -0.6828758175       -2.1731326242
 H         -2.1408617461       -1.9648335994        0.0277244842
 H          3.4255177686       -1.1681054832        1.5653070136
 H          5.1276909250        0.5743288475        1.0804455124
 H          4.5444803264        2.4789125695       -0.3818104685
 H          2.2651166671        2.6344659964       -1.3505839941
  32
 Etot=  -51.4239659191 g norm=  0.00030584
 C         -4.6242162961        0.1839614037       -1.7183097493
 C         -3.7456129680        0.5808115334       -0.5707770035
 C         -3.7433759439        2.0457546702       -0.2401840022
 C         -3.0464848297       -0.3243413450        0.1049435514
 C         -2.1351971991       -0.0403102827        1.2714519183
 C         -0.7036069459       -0.2616780054        0.8497335507
 C         -0.1411518414       -1.4973809573        0.8123680558
 O         -0.7639831989       -2.6260209572        1.1745799387
 C          1.2577775781       -1.7350433769        0.3675290817
 O          1.7373531201       -2.8594711420        0.3778288047
 C          2.0099651604       -0.5521304694       -0.0724162362
 C          3.3198483904       -0.7030256077       -0.5189651402
 C          4.0486070841        0.3973427160       -0.9394663673
 C          3.4727911800        1.6577799771       -0.9171743526
 C          2.1694827176        1.8180126486       -0.4730248946
 C          1.4279796966        0.7214810813       -0.0481370117
 C          0.0409069348        0.9217917241        0.4217972586
 O         -0.4580036723        2.0439852878        0.4543197098
 H         -4.2892930387        0.6780142285       -2.6296173936
 H         -5.6489081017        0.4990937733       -1.5270372359
 H         -4.6102626449       -0.8909849715       -1.8783595914
 H         -4.2251711145        2.6132028890       -1.0311420089
 H         -2.7270427706        2.4164912873       -0.1184282449
 H         -4.2830217417        2.2287917558        0.6884427318
 H         -3.0851779905       -1.3595797798       -0.2089187022
 H         -2.3960831292       -0.6811647033        2.1174485352
 H         -2.2388610074        0.9969155859        1.5850404755
 H         -1.6651412511       -2.4584358118        1.4999159667
 H          3.7455047538       -1.6952769862       -0.5265096991
 H          5.0626227859        0.2697133626       -1.2833543267
 H          4.0363463393        2.5171569716       -1.2441293912
 H          1.7033044981        2.7915973857       -0.4462101118
  32
 Etot=  -51.4239655295 g norm=  0.00032420
 C         -4.5800617738        0.1861702653       -1.7126083723
 C         -3.7243136349        0.5792318886       -0.5468226340
 C         -3.7359330057        2.0415355403       -0.2047547833
 C         -3.0304521618       -0.3267087310        0.1333768958
 C         -2.1372810520       -0.0450665742        1.3144244179
 C         -0.7009881280       -0.2656513114        0.9092081225
 C         -0.1320998072       -1.4988518676        0.8905137074
 O         -0.7510026014       -2.6268067277        1.2618233410
 C          1.2714310288       -1.7340853098        0.4594802335
 O          1.7606955811       -2.8536715907        0.4978796008
 C          2.0159860450       -0.5550096210       -0.0032970707
 C          3.3252326534       -0.7065755395       -0.4515118077
 C          4.0463059341        0.3901989356       -0.8940358248
 C          3.4639309723        1.6478556846       -0.8909122189
 C          2.1615476585        1.8088667664       -0.4443481692
 C          1.4272958875        0.7157096499        0.0013290176
 C          0.0405256454        0.9163898137        0.4717467441
 O         -0.4611625713        2.0374687259        0.4953796529
 H         -5.6108793513        0.4894290775       -1.5355623174
 H         -4.5528970103       -0.8866529744       -1.8837170061
 H         -4.2347151382        0.6931061482       -2.6127652643
 H         -4.2267681574        2.6106188428       -0.9887300872
 H         -2.7223469366        2.4207074399       -0.0840285791
 H         -4.2726768977        2.2120518515        0.7276359735
 H         -3.0571977318       -1.3599653090       -0.1876547162
 H         -2.4104178700       -0.6875313635        2.1550862798
 H         -2.2452730979        0.9916756331        1.6280480412
 H         -1.6555221815       -2.4612260706        1.5787848693
 H          3.7563088987       -1.6965012829       -0.4431202885
 H          5.0596910897        0.2619579471       -1.2396798998
 H          4.0215810233        2.5044114755       -1.2349671152
 H          1.6900886328        2.7802519366       -0.4326284729
  32
 Etot=  -51.4237500811 g norm=  0.00035109
 C         -4.9601028509       -0.0744433339        1.6675948870
 C         -4.1183024546        0.0808821635        0.4359225310
 C         -4.8678045723       -0.1103271676       -0.8473508424
 C         -2.8273760216        0.3899678132        0.5246239555
 C         -1.8742103297        0.6312398318       -0.6142028684
 C         -0.4597218628        0.2334917962       -0.2800319468
 C         -0.1615972327       -0.9999236014        0.2052144251
 O         -1.0684972927       -1.9570876219        0.4280089284
 C          1.2255223087       -1.4251472794        0.5328936174
 O          1.4541106468       -2.5452588334        0.9648998346
 C          2.2809715357       -0.4288222126        0.3022287870
 C          3.6040029060       -0.7589365819        0.5827652275
 C          4.6168617486        0.1620982450        0.3715205797
 C          4.3146549956        1.4216117463       -0.1213872163
 C          2.9999749524        1.7602279512       -0.4021015628
 C          1.9749017984        0.8444167984       -0.1950857827
 C          0.5821699610        1.2332410566       -0.5031260885
 O          0.3175198028        2.3545369104       -0.9315649610
 H         -5.3728257445       -1.0808844029        1.7192732168
 H         -5.7962697927        0.6220799564        1.6359901225
 H         -4.3836126151        0.1135774830        2.5690599820
 H         -5.5199667169       -0.9784491817       -0.7747480811
 H         -4.2100687236       -0.2341958869       -1.7018000634
 H         -5.4964003199        0.7600573228       -1.0320739226
 H         -2.3939197809        0.5452194038        1.5053295869
 H         -1.8571480390        1.6984886954       -0.8588601714
 H         -2.1948025717        0.1007197740       -1.5147222635
 H         -1.9759260689       -1.6302396172        0.2754784415
 H          3.8131372040       -1.7461881629        0.9667549173
 H          5.6383910492       -0.1038628936        0.5918480547
 H          5.1001007390        2.1414670593       -0.2882864086
 H          2.7425423304        2.7361160171       -0.7859315365
  32
 Etot=  -51.4236944507 g norm=  0.00028460
 C         -5.0516213176       -0.4221849486        1.3564529450
 C         -4.1792439055        0.1504424332        0.2787703282
 C         -4.8915605152        0.3993346640       -1.0155667103
 C         -2.8964960096        0.4184681737        0.5104148227
 C         -1.9073212485        1.0349090759       -0.4401709646
 C         -0.5235691319        0.4559961186       -0.2887591278
 C         -0.3069801521       -0.8851681468       -0.3059442858
 O         -1.2740220064       -1.7971330866       -0.4506927672
 C          1.0478671730       -1.4860455347       -0.1813475131
 O          1.2053251569       -2.6969774141       -0.2289388765
 C          2.1611746348       -0.5433915780       -0.0025433704
 C          3.4550787585       -1.0354418651        0.1449439570
 C          4.5204925015       -0.1670968805        0.3175847750
 C          4.3007752425        1.2010809475        0.3421977757
 C          3.0160780043        1.7006095844        0.1948278405
 C          1.9385782139        0.8394057727        0.0227610552
 C          0.5789991497        1.4007463138       -0.1273722323
 O          0.3899071587        2.6152730264       -0.1140351043
 H         -5.4515614239       -1.3863998318        1.0461912734
 H         -5.8960662871        0.2395703644        1.5421308005
 H         -4.5017298090       -0.5544909546        2.2841501665
 H         -5.5610367169        1.2510575722       -0.9015748425
 H         -5.4996845454       -0.4637715483       -1.2790643172
 H         -4.2126363361        0.6144482639       -1.8344539575
 H         -2.4954091367        0.2296453573        1.4989360257
 H         -1.8277261824        2.1087594754       -0.2419510828
 H         -2.2327896465        0.9224525650       -1.4774013335
 H         -2.1570457635       -1.3773275882       -0.4483696385
 H          3.6001782391       -2.1050664540        0.1214441809
 H          5.5186162171       -0.5587394170        0.4321055056
 H          5.1272234655        1.8808096390        0.4763126498
 H          2.8226932141        2.7628557206        0.2108031538
  32
 Etot=  -51.4237535961 g norm=  0.00021943
 C         -5.0291669310        0.0170792770       -1.6516811624
 C         -4.1676464172        0.2182546290       -0.4403963635
 C         -4.9006154233        0.0959435169        0.8606573277
 C         -2.8746483639        0.5072019516       -0.5620325522
 C         -1.9012625829        0.7935101377        0.5483992719
 C         -0.5061529029        0.3178040168        0.2342722267
 C         -0.2602174587       -0.9555534783       -0.1700960306
 O         -1.2045728461       -1.8895215448       -0.3246671417
 C          1.1066846686       -1.4557489752       -0.4767389199
 O          1.2877015080       -2.6098068228       -0.8356460867
 C          2.2021586643       -0.4890384284       -0.3179109458
 C          3.5088947034       -0.8885074365       -0.5843116542
 C          4.5584390006        0.0041350907       -0.4412869694
 C          4.3095641797        1.3043244567       -0.0310892858
 C          3.0115873347        1.7117026255        0.2356070613
 C          1.9500474123        0.8250511947        0.0963471971
 C          0.5761683302        1.2873273715        0.3872346142
 O          0.3592552913        2.4432552994        0.7443797032
 H         -5.4621276684       -0.9823757263       -1.6470932189
 H         -4.4613155949        0.1481481771       -2.5688431575
 H         -5.8511723616        0.7313012069       -1.6444455258
 H         -5.5052745506        0.9876624053        1.0207464698
 H         -4.2328116229       -0.0111162669        1.7095740845
 H         -5.5737826962       -0.7581916028        0.8316829550
 H         -2.4535908135        0.6081797255       -1.5550090446
 H         -2.2327681453        0.3453190973        1.4885429759
 H         -1.8404120777        1.8745417759        0.7121684078
 H         -2.0981384088       -1.5205966699       -0.1861031435
 H          3.6764003343       -1.9062874127       -0.9033129765
 H          5.5669365930       -0.3157252166       -0.6496374245
 H          5.1236835405        2.0024878849        0.0821829554
 H          2.7954206808        2.7201651968        0.5553492294
  32
 Etot=  -51.4237171074 g norm=  0.00046222
 C         -5.0112747714       -0.5730195798        1.5369857995
 C         -4.1484502376       -0.0057543521        0.4491559851
 C         -4.8631908359        0.2065894719       -0.8505970174
 C         -2.8711066933        0.2914826459        0.6760601505
 C         -1.8979443262        0.9151768085       -0.2855152052
 C         -0.5003081160        0.3702222960       -0.1365552586
 C         -0.2522455124       -0.9653959285       -0.1171007250
 O         -1.1986061273       -1.9044522365       -0.2200309720
 C          1.1180065868       -1.5306090841        0.0078555285
 O          1.3020023666       -2.7387731343        0.0072098647
 C          2.2127584238       -0.5573290497        0.1278568246
 C          3.5211391557       -1.0142500090        0.2600403799
 C          4.5694077872       -0.1163936278        0.3781587101
 C          4.3177428269        1.2463753929        0.3647063959
 C          3.0184237939        1.7110524238        0.2321410257
 C          1.9581016989        0.8200232346        0.1130889946
 C          0.5826545911        1.3445156563       -0.0243187092
 O          0.3649180812        2.5541148586       -0.0429892208
 H         -5.3859879625       -1.5542645093        1.2491424324
 H         -5.8726527219        0.0721661294        1.7017845479
 H         -4.4630113111       -0.6682779064        2.4701777774
 H         -5.5088414278        1.0804520736       -0.7698939325
 H         -5.4951593152       -0.6506795135       -1.0742864641
 H         -4.1840274901        0.3686415989       -1.6817606228
 H         -2.4658509496        0.1282755089        1.6675341103
 H         -1.8412789169        1.9930957602       -0.1014079442
 H         -2.2259243037        0.7843134884       -1.3197734634
 H         -2.0918663322       -1.5062049644       -0.2182934628
 H          3.6911911386       -2.0804013426        0.2677557909
 H          5.5788983236       -0.4809381508        0.4817715400
 H          5.1307003671        1.9490784503        0.4565422973
 H          2.8001420730        2.7685001600        0.2191645821
  32
 Etot=  -51.4249685015 g norm=  0.00023540
 C         -4.7477226178       -0.8970940650        0.8127221081
 C         -3.5019850973       -0.1255590135        0.5020690203
 C         -2.5524860727        0.0345127040        1.6505587819
 C         -3.2671971175        0.3534958504       -0.7170743127
 C         -2.0590465391        1.1571954434       -1.1239930293
 C         -0.7344378388        0.5154293378       -0.7905427947
 C         -0.4785494082       -0.7930739699       -1.0505090817
 O         -1.3538965932       -1.6339239074       -1.6114312071
 C          0.8228395052       -1.4392977165       -0.7347327795
 O          1.0018043028       -2.6294936677       -0.9482884449
 C          1.8617532716       -0.5671337213       -0.1689470253
 C          3.1206026092       -1.0934251629        0.1067511658
 C          4.1169513189       -0.2886749607        0.6348582856
 C          3.8609575216        1.0482416033        0.8954149360
 C          2.6085991828        1.5800176283        0.6292392592
 C          1.6021047933        0.7833819499        0.0954198944
 C          0.2751386996        1.3753775825       -0.1755756992
 O          0.0357693516        2.5471256412        0.1099108376
 H         -5.3326469921       -0.3713336352        1.5660385475
 H         -4.4884463017       -1.8738354444        1.2184587887
 H         -5.3632270752       -1.0336788989       -0.0719221440
 H         -1.8943317074       -0.8332169588        1.7168102134
 H         -3.1026219489        0.1067502730        2.5857006520
 H         -1.9321212190        0.9205309004        1.5401398891
 H         -4.0164187430        0.2150827862       -1.4852039199
 H         -2.0709812077        2.1338818832       -0.6290233986
 H         -2.0963932604        1.3468705131       -2.1999928903
 H         -2.2218831229       -1.2049247754       -1.7424733216
 H          3.2944091608       -2.1382022840       -0.1029901309
 H          5.0896496597       -0.7054442746        0.8420311975
 H          4.6336714742        1.6782459391        1.3064149862
 H          2.3871885249        2.6180851740        0.8276330163
  32
 Etot=  -51.4237495179 g norm=  0.00035653
 C         -5.0021397958       -0.0479664875       -1.6718208161
 C         -4.1420156121        0.1377408585       -0.4570927971
 C         -4.8748426265       -0.0092865313        0.8415943015
 C         -2.8505677518        0.4354282170       -0.5730300142
 C         -1.8806166409        0.7087103873        0.5435720444
 C         -0.4785490074        0.2626661680        0.2175973074
 C         -0.2116151417       -0.9962510994       -0.2175951514
 O         -1.1394025007       -1.9429790063       -0.3934145286
 C          1.1631523259       -1.4649593134       -0.5392094232
 O          1.3624020420       -2.6050372466       -0.9316838957
 C          2.2428311304       -0.4853638484       -0.3539565197
 C          3.5561284317       -0.8569183427       -0.6283584655
 C          4.5911902104        0.0480132838       -0.4590614481
 C          4.3209629952        1.3329319792       -0.0155734074
 C          3.0161410566        1.7128888987        0.2579923610
 C          1.9691541538        0.8133567240        0.0935779349
 C          0.5876367070        1.2463431507        0.3928541583
 O          0.3516451387        2.3901232385        0.7762652572
 H         -5.4236150911       -1.0520726381       -1.6875700879
 H         -4.4367842408        0.1082357900       -2.5865435557
 H         -5.8322048606        0.6564334236       -1.6493594434
 H         -5.4796124387        0.8793744442        1.0184759225
 H         -4.2065524013       -0.1319702055        1.6882385694
 H         -5.5482832785       -0.8629110939        0.7968867939
 H         -2.4298921722        0.5567410602       -1.5635654718
 H         -2.2051192850        0.2330721554        1.4726025204
 H         -1.8362529166        1.7862587399        0.7340110602
 H         -2.0392332495       -1.5954129092       -0.2428403693
 H          3.7402569495       -1.8632779447       -0.9732691225
 H          5.6049695200       -0.2500844867       -0.6738004704
 H          5.1236722839        2.0406377286        0.1174134079
 H          2.7836106342        2.7089837358        0.6041169248
  32
 Etot=  -51.4237151828 g norm=  0.00033104
 C         -5.0134104312       -0.3515089102        1.5527630065
 C         -4.1406033485        0.0476880443        0.4004005168
 C         -4.8401022218        0.0585592942       -0.9246940749
 C         -2.8662694167        0.3811701268        0.5925307405
 C         -1.8854072584        0.8513396016       -0.4450115153
 C         -0.4850125131        0.3517635221       -0.1965045103
 C         -0.2270463287       -0.9547403042        0.0725839913
 O         -1.1643272732       -1.9058854534        0.1426729270
 C          1.1460398570       -1.4733561499        0.3143696569
 O          1.3356449395       -2.6524137915        0.5744349253
 C          2.2368175611       -0.4933182706        0.2158780288
 C          3.5505546499       -0.9126314705        0.4064300912
 C          4.5959334003       -0.0084849915        0.3141082253
 C          4.3357071845        1.3232548981        0.0323965407
 C          3.0304717930        1.7510588054       -0.1549934162
 C          1.9730922164        0.8530092070       -0.0665601394
 C          0.5911239202        1.3376242013       -0.2691607062
 O          0.3627284547        2.5244265735       -0.4934333123
 H         -5.3724815136       -1.3709709908        1.4181086856
 H         -5.8841645233        0.3000922178        1.6021863388
 H         -4.4780461124       -0.2916597153        2.4963980828
 H         -5.4550555612        0.9545086174       -1.0021916560
 H         -5.4995575318       -0.8026404131       -1.0071747772
 H         -4.1501394820        0.0536451810       -1.7629601267
 H         -2.4720041137        0.3759878250        1.6018365114
 H         -1.8392946611        1.9454095350       -0.4380813980
 H         -2.1995193207        0.5523482922       -1.4483574526
 H         -2.0617786219       -1.5238566083        0.0653699745
 H          3.7268752593       -1.9550914763        0.6254400601
 H          5.6100157598       -0.3440134459        0.4617695798
 H          5.1465282198        2.0303293410       -0.0414202116
 H          2.8054030024        2.7843084723       -0.3733388183
  32
 Etot=  -51.4239778305 g norm=  0.00028444
 C         -4.5293294016        1.0412009645        1.6197863212
 C         -3.7071608032        0.8609466812        0.3798310831
 C         -3.7245841238        2.0186158545       -0.5765631021
 C         -3.0377300353       -0.2646045435        0.1574264133
 C         -2.1779559011       -0.5541428030       -1.0463507424
 C         -0.7294954898       -0.5736465127       -0.6243317364
 C         -0.1571802801       -1.6614256839       -0.0465602950
 O         -0.7855902393       -2.8241157992        0.1688318000
 C          1.2585739261       -1.6844191335        0.4070752720
 O          1.7485498792       -2.6975678492        0.8845095998
 C          2.0143150654       -0.4353614935        0.2418773748
 C          3.3373099838       -0.3756272690        0.6707423718
 C          4.0699594817        0.7908283751        0.5243569363
 C          3.4854744833        1.9069968447       -0.0529703717
 C          2.1689600253        1.8566629021       -0.4838963629
 C          1.4230954647        0.6920739463       -0.3417865561
 C          0.0213260530        0.6671454753       -0.8097602189
 O         -0.4852056346        1.6548986361       -1.3361793951
 H         -5.5623908611        1.2569971370        1.3519872044
 H         -4.1515991096        1.8859784792        2.1944410366
 H         -4.5059268370        0.1536563783        2.2467554021
 H         -2.7166711032        2.2758892357       -0.8974154151
 H         -4.1710097652        2.8907921788       -0.1080461140
 H         -4.3077245766        1.7722653054       -1.4630395794
 H         -3.0602941247       -1.0455853307        0.9065954534
 H         -2.3024127917        0.2268036489       -1.7943866590
 H         -2.4666834109       -1.5076894617       -1.4955462103
 H         -1.6997941509       -2.8108056996       -0.1630046520
 H          3.7699423435       -1.2588857906        1.1160886918
 H          5.0937823881        0.8269651142        0.8611139487
 H          4.0521776200        2.8172452364       -0.1682095397
 H          1.6948374094        2.7146665410       -0.9364995053
  32
 Etot=  -51.4236784343 g norm=  0.00019005
 C         -5.1128646922       -0.3086902116        1.3839923977
 C         -4.2044024750        0.3083595578        0.3666476267
 C         -4.8696799010        1.1019040611       -0.7199631656
 C         -2.8846941155        0.1618626797        0.4214966980
 C         -1.9320199503        0.7839173326       -0.5667440840
 C         -0.5214712115        0.2835771037       -0.4159532368
 C         -0.2135830945       -1.0328978618       -0.5479319099
 O         -1.1061194402       -1.9894771929       -0.8265205240
 C          1.1712224264       -1.5568647822       -0.4052261941
 O          1.4110469278       -2.7466952650       -0.5481183876
 C          2.2099361239       -0.5667764169       -0.0878099239
 C          3.5273491556       -0.9872697564        0.0728071699
 C          4.5241789309       -0.0730603844        0.3719490435
 C          4.2116134865        1.2698136490        0.5126290611
 C          2.9027696973        1.6981713734        0.3538306310
 C          1.8936399457        0.7903354777        0.0540818344
 C          0.5072048385        1.2760311967       -0.1114126229
 O          0.2368372062        2.4696531084        0.0021310152
 H         -5.8325688551       -0.9634472754        0.8945611672
 H         -5.6715005769        0.4686834238        1.9034485169
 H         -4.5536323967       -0.8845761198        2.1165676390
 H         -5.9372298829        1.1821835949       -0.5394307575
 H         -4.7203504644        0.6313090884       -1.6910634020
 H         -4.4472841317        2.1040130697       -0.7727927365
 H         -2.4340460683       -0.3915068447        1.2343929134
 H         -1.9090223352        1.8694424028       -0.4230540048
 H         -2.2837410904        0.6078967779       -1.5888597474
 H         -2.0120870140       -1.6373172645       -0.8834502961
 H          3.7453012162       -2.0383785827       -0.0425123362
 H          5.5412079134       -0.4094776043        0.4953488837
 H          4.9842295062        1.9848936290        0.7464458275
 H          2.6374524829        2.7396569640        0.4581657575
  32
 Etot=  -51.4249946490 g norm=  0.00029672
 C         -4.7262365593       -0.2711060737        1.2083773817
 C         -3.5036921024        0.2296695403        0.5025750623
 C         -2.5688431075        1.0378742975        1.3509239073
 C         -3.2752039994       -0.0531026527       -0.7773241977
 C         -2.0853877508        0.4144108772       -1.5758090792
 C         -0.7520871266        0.0954204686       -0.9447226204
 C         -0.4633318915       -1.1377456869       -0.4537508323
 O         -1.3072109504       -2.1746488303       -0.4802915313
 C          0.8422080547       -1.4714908665        0.1747798655
 O          1.0580245117       -2.5892850143        0.6198890014
 C          1.8368140060       -0.3904511946        0.2209376936
 C          3.0859365617       -0.6347906675        0.7846161993
 C          4.0409050704        0.3675113653        0.8350951615
 C          3.7537684594        1.6229025789        0.3232927347
 C          2.5112389305        1.8767420016       -0.2366168031
 C          1.5452285165        0.8788535749       -0.2938882700
 C          0.2257989227        1.1802791409       -0.8877631681
 O         -0.0349385326        2.3051930104       -1.3100315119
 H         -5.3314591717       -0.8989497193        0.5606919733
 H         -5.3321500155        0.5685186300        1.5454993125
 H         -4.4375699206       -0.8442544775        2.0880332312
 H         -1.8807423296        0.3793886554        1.8833218656
 H         -3.1282429555        1.6036287099        2.0921798200
 H         -1.9795427968        1.7299944906        0.7545912656
 H         -4.0142143978       -0.6216120474       -1.3262230949
 H         -2.1215352779        1.5005607476       -1.7089914413
 H         -2.1210110340       -0.0290028784       -2.5741619875
 H         -2.1796943477       -1.9134156768       -0.8323027270
 H          3.2848848684       -1.6207320678        1.1771530732
 H          5.0056005708        0.1676848607        1.2735184789
 H          4.4946520087        2.4057533272        0.3594839402
 H          2.2661841109        2.8482636600       -0.6393820559
  32
 Etot=  -51.4237654107 g norm=  0.00020003
 C         -5.1217215107       -0.1813799071        1.5597149524
 C         -4.2095080379        0.3216423359        0.4845709024
 C         -4.8774759885        0.8092292604       -0.7687874600
 C         -2.8885487670        0.3398900996        0.6390603052
 C         -1.9205628051        0.8622654833       -0.3885945250
 C         -0.5234108051        0.3317717016       -0.2083913933
 C         -0.2728090516       -1.0006690873       -0.1211011968
 O         -1.2174626117       -1.9457118840       -0.1837790261
 C          1.0966916497       -1.5564638151        0.0425980721
 O          1.2825607406       -2.7628385797        0.1055978970
 C          2.1893109186       -0.5763133797        0.1186445900
 C          3.4978892335       -1.0239639241        0.2777616249
 C          4.5445372971       -0.1197052145        0.3536202631
 C          4.2909954222        1.2402572804        0.2707703992
 C          2.9913863926        1.6956404215        0.1114271966
 C          1.9326511698        0.7981613759        0.0341162647
 C          0.5572269531        1.3126522054       -0.1372031552
 O          0.3377684635        2.5193928365       -0.2177229918
 H         -4.5619794109       -0.5308198466        2.4231705217
 H         -5.7316620608       -0.9997629870        1.1796440189
 H         -5.7950290535        0.6131809262        1.8782349722
 H         -4.5844114658        0.2080540916       -1.6287141341
 H         -4.5931580283        1.8399058823       -0.9745357068
 H         -5.9577602818        0.7599803669       -0.6707036246
 H         -2.4508041375        0.0165832199        1.5744566112
 H         -1.8626221455        1.9541417995       -0.3236295984
 H         -2.2752085433        0.6226813923       -1.3959854975
 H         -2.1100813880       -1.5536224057       -0.2262678396
 H          3.6692920931       -2.0880917887        0.3406206663
 H          5.5543471818       -0.4770410634        0.4777465951
 H          5.1026670619        1.9478752320        0.3298245934
 H          2.7717555026        2.7507345367        0.0440860121
  32
 Etot=  -51.4236785339 g norm=  0.00042441
 C         -5.1233176905       -0.1553753147        1.4583300736
 C         -4.2123672694        0.3482330359        0.3823835936
 C         -4.8732493230        1.0336620835       -0.7779467458
 C         -2.8938045633        0.1950132504        0.4492401566
 C         -1.9384723118        0.7027472160       -0.5997764219
 C         -0.5283982186        0.2219825791       -0.3915823139
 C         -0.2224931978       -1.1011269115       -0.3537760891
 O         -1.1155595744       -2.0845708170       -0.5107776110
 C          1.1596981613       -1.6050534957       -0.1344934068
 O          1.3940522063       -2.8041704007       -0.1052326888
 C          2.2020727827       -0.5843950154        0.0428732639
 C          3.5186174985       -0.9831750689        0.2570415667
 C          4.5186677768       -0.0398273212        0.4268397732
 C          4.2102509178        1.3106344588        0.3831762354
 C          2.9023008168        1.7174398183        0.1698767135
 C          1.8898166984        0.7803712629       -0.0009744139
 C          0.5039223089        1.2432557196       -0.2259252828
 O          0.2373615659        2.4421276228       -0.2751558221
 H         -5.8473231001       -0.8524047647        1.0385499458
 H         -5.6768358010        0.6741904620        1.8961463579
 H         -4.5666943254       -0.6572423725        2.2453405679
 H         -5.9402919323        1.1385984824       -0.6063421375
 H         -4.7273484779        0.4676535157       -1.6975602967
 H         -4.4440098124        2.0228097638       -0.9306637129
 H         -2.4469124478       -0.2771898297        1.3138311141
 H         -1.9149887746        1.7975574941       -0.5789717466
 H         -2.2889532215        0.4148220554       -1.5967284444
 H         -2.0198158117       -1.7406955748       -0.6207644580
 H          3.7333207492       -2.0408669641        0.2859067262
 H          5.5351679114       -0.3593514013        0.5924376415
 H          4.9856057299        2.0485589002        0.5147248491
 H          2.6402511698        2.7642839278        0.1323422762
  32
 Etot=  -51.4249734883 g norm=  0.00023074
 C         -4.7417476775       -0.6469139230        0.9908874415
 C         -3.4957013034        0.0348078077        0.5150110981
 C         -2.5412375098        0.4385992955        1.5979862699
 C         -3.2652752137        0.2358234515       -0.7799313452
 C         -2.0567316531        0.9264703532       -1.3579164867
 C         -0.7338535886        0.3711432304       -0.8899761254
 C         -0.4755121775       -0.9622854158       -0.8778177203
 O         -1.3467721031       -1.9005976980       -1.2630974634
 C          0.8249457529       -1.5290119557       -0.4317774711
 O          1.0101004047       -2.7370781469       -0.4113632826
 C          1.8532161600       -0.5588370416       -0.0297987927
 C          3.1062284277       -1.0164359672        0.3679873903
 C          4.0914909993       -0.1206917816        0.7495855408
 C          3.8303473517        1.2402433711        0.7398641331
 C          2.5844756349        1.7053210376        0.3482558633
 C          1.5891466687        0.8164290308       -0.0408955324
 C          0.2699485050        1.3399951474       -0.4537517951
 O          0.0316484179        2.5459022979       -0.4249396858
 H         -5.3659909760       -0.9624825834        0.1597637133
 H         -5.3174737142        0.0282195532        1.6222966266
 H         -4.4821684715       -1.5184351350        1.5902130162
 H         -3.0875622253        0.7087899339        2.4985359547
 H         -1.9239419217        1.2814859337        1.2972696680
 H         -1.8803999752       -0.3934683312        1.8457342178
 H         -4.0184663532       -0.0642181608       -1.4960918007
 H         -2.0660062068        1.9889027585       -1.0930457422
 H         -2.0961267680        0.8700905804       -2.4489803699
 H         -2.2133119048       -1.5098624039       -1.4867528698
 H          3.2842426525       -2.0813763140        0.3690322052
 H          5.0595376758       -0.4855526198        1.0538082687
 H          4.5943487782        1.9411943140        1.0366050692
 H          2.3597851843        2.7614942180        0.3346992504
  32
 Etot=  -51.4237199840 g norm=  0.00026937
 C         -5.0289798024       -0.5658335614        1.4031273224
 C         -4.1535245603        0.0122554789        0.3312792821
 C         -4.8502543513        0.2301512037       -0.9773888664
 C         -2.8809706583        0.3143704427        0.5784509986
 C         -1.8969065868        0.9476722049       -0.3653994079
 C         -0.5023405022        0.3957613613       -0.2118819106
 C         -0.2602332570       -0.9410661397       -0.1984835624
 O         -1.2097455981       -1.8756398703       -0.3119825238
 C          1.1066138708       -1.5129981499       -0.0670441468
 O          1.2840777764       -2.7221588485       -0.0624347025
 C          2.2063124737       -0.5451400501        0.0506815190
 C          3.5130232572       -1.0086548960        0.1763191777
 C          4.5663074771       -0.1160986480        0.2894594315
 C          4.3212960757        1.2479341497        0.2778316443
 C          3.0234608531        1.7191036827        0.1536592328
 C          1.9581439193        0.8334104585        0.0394153362
 C          0.5843349087        1.3646301926       -0.0893493424
 O          0.3712711778        2.5752289189       -0.0939728562
 H         -5.8937246386        0.0765878672        1.5622568049
 H         -4.4925301962       -0.6682095160        2.3427096845
 H         -5.3982384919       -1.5451999379        1.1016193251
 H         -5.4921389787        1.1077175197       -0.9043783777
 H         -5.4838327474       -0.6235003285       -1.2100776502
 H         -4.1593595632        0.3889170920       -1.7997533146
 H         -2.4890939859        0.1473613566        1.5746514619
 H         -1.8381929918        2.0227649794       -0.1661330136
 H         -2.2158962532        0.8320798948       -1.4043306301
 H         -2.1015078885       -1.4735643238       -0.3123515882
 H          3.6776398875       -2.0756725967        0.1833471706
 H          5.5747121806       -0.4856964815        0.3861397368
 H          5.1382850931        1.9464916717        0.3647991585
 H          2.8103878191        2.7776216285        0.1423782624
  32
 Etot=  -51.4237124802 g norm=  0.00025974
 C         -4.9893173124       -0.6484409350        1.4857315822
 C         -4.1305820644       -0.0584025155        0.4067844604
 C         -4.8464301748        0.1679516447       -0.8900048379
 C         -2.8561137890        0.2466464339        0.6387970172
 C         -1.8881199748        0.8925745425       -0.3134568225
 C         -0.4857039687        0.3588846987       -0.1682551326
 C         -0.2252344506       -0.9744945968       -0.1767677333
 O         -1.1626212060       -1.9193562981       -0.3054683432
 C          1.1496010898       -1.5297426282       -0.0584357863
 O          1.3457979920       -2.7354840876       -0.0929700556
 C          2.2336331324       -0.5493826616        0.0964828207
 C          3.5448331924       -0.9972414066        0.2316388447
 C          4.5832584717       -0.0929020359        0.3824366789
 C          4.3190157856        1.2674415452        0.3977252592
 C          3.0168295445        1.7231926977        0.2622312518
 C          1.9661380781        0.8255576454        0.1115800365
 C          0.5871629206        1.3404896786       -0.0270653056
 O          0.3585216018        2.5482055712       -0.0225944601
 H         -5.3646004570       -1.6239210066        1.1794125220
 H         -5.8506772411       -0.0072877410        1.6667034160
 H         -4.4378187696       -0.7619629857        2.4149247154
 H         -5.4953814772        1.0383120096       -0.7980855831
 H         -5.4746652057       -0.6888458885       -1.1249938525
 H         -4.1678447210        0.3434821645       -1.7188254381
 H         -2.4495763527        0.0719608627        1.6276810338
 H         -1.8423663357        1.9684672810       -0.1151506100
 H         -2.2135201659        0.7712071709       -1.3497642306
 H         -2.0593464076       -1.5294331554       -0.2984532091
 H          3.7247257662       -2.0617247538        0.2169004562
 H          5.5950129594       -0.4506287949        0.4884983930
 H          5.1243963371        1.9751413336        0.5141086980
 H          2.7888853091        2.7786579848        0.2706537760
  32
 Etot=  -51.4239525381 g norm=  0.00025347
 C         -4.3803264176        1.3405781600        1.8079182775
 C         -3.5961649473        1.0800325494        0.5577484106
 C         -3.6014255618        2.1955400676       -0.4476289696
 C         -2.9686692861       -0.0753567894        0.3679131849
 C         -2.1523264192       -0.4430611084       -0.8445947547
 C         -0.6933408925       -0.5025986428       -0.4643792429
 C         -0.1461598225       -1.5886184612        0.1405872420
 O         -0.8142546400       -2.7133680801        0.4262996845
 C          1.2823344506       -1.6531274063        0.5479111484
 O          1.7448871004       -2.6635067887        1.0573645748
 C          2.0845882766       -0.4483356040        0.2962402284
 C          3.4258563585       -0.4310876245        0.6686307067
 C          4.2024472623        0.6931218331        0.4413430043
 C          3.6434208285        1.8096438567       -0.1600231886
 C          2.3089426700        1.8013896792       -0.5351743955
 C          1.5192967569        0.6790491207       -0.3128310994
 C          0.0999258016        0.6973654128       -0.7255559739
 O         -0.3857519875        1.6855840971       -1.2703706785
 H         -5.4124552333        1.5787710503        1.5556884789
 H         -3.9615852455        2.1963561660        2.3359498035
 H         -4.3692936310        0.4808036550        2.4725103542
 H         -4.0078960986        3.1011719631       -0.0066922284
 H         -4.2145028994        1.9306533235       -1.3082602621
 H         -2.5941542280        2.4055139137       -0.8035617835
 H         -2.9964212743       -0.8230585069        1.1498827956
 H         -2.2692092334        0.3126649055       -1.6192692438
 H         -2.4887286867       -1.4013605092       -1.2483350292
 H         -1.7381423989       -2.6729643054        0.1248790255
 H          3.8375097701       -1.3134605908        1.1351852862
 H          5.2406127865        0.6959625767        0.7328698476
 H          4.2446146493        2.6868780273       -0.3395073295
 H          1.8547922876        2.6602806704       -1.0062578396
  32
 Etot=  -51.4237572381 g norm=  0.00033625
 C         -5.0988080783       -0.4617615850        1.5447478092
 C         -4.1999778647        0.1428738747        0.5114446440
 C         -4.8818777476        0.7474350348       -0.6820135960
 C         -2.8771936527        0.1449199542        0.6479929901
 C         -1.9257368998        0.7635905526       -0.3419842847
 C         -0.5131660872        0.2665357309       -0.1919090555
 C         -0.2189952477       -1.0595671250       -0.2169608624
 O         -1.1304965310       -2.0255220721       -0.3761162741
 C          1.1660796642       -1.5831363237       -0.0803839752
 O          1.3916121646       -2.7836539497       -0.1215580199
 C          2.2233878404       -0.5787808668        0.1027696206
 C          3.5433416560       -0.9963864343        0.2493420937
 C          4.5574223479       -0.0691007103        0.4243453635
 C          4.2597576638        1.2841845372        0.4532799300
 C          2.9485382573        1.7097624107        0.3073776464
 C          1.9220709961        0.7889023868        0.1317779716
 C          0.5330987454        1.2719844153       -0.0210682833
 O          0.2752046806        2.4736846830       -0.0065653544
 H         -5.7206123223       -1.2336613155        1.0934352569
 H         -5.7611179560        0.3002765959        1.9533050641
 H         -4.5280401361       -0.9002015607        2.3590066387
 H         -5.9600206414        0.7368678490       -0.5528775300
 H         -4.6414312732        0.1944966134       -1.5895557146
 H         -4.5575880732        1.7765757487       -0.8262564413
 H         -2.4260419807       -0.2682493584        1.5405567957
 H         -1.9027849723        1.8502322196       -0.2058770913
 H         -2.2733990677        0.5789577560       -1.3634558236
 H         -2.0350219048       -1.6617758341       -0.4050562229
 H          3.7493882017       -2.0558890588        0.2230592541
 H          5.5762902164       -0.4033052485        0.5383825411
 H          5.0460505288        2.0095962831        0.5894734221
 H          2.6946523893        2.7591434485        0.3259139221
  32
 Etot=  -51.4236852627 g norm=  0.00034657
 C         -5.1106987943       -0.8388477808        0.8038331227
 C         -4.1805000444        0.0389944157        0.0225449345
 C         -4.8292872366        0.8118872353       -1.0868678001
 C         -2.8907479282        0.1291352397        0.3385522762
 C         -1.8756980081        1.0200615686       -0.3225420182
 C         -0.4820788976        0.4485339277       -0.2948167180
 C         -0.2221740523       -0.8232246526       -0.6957856010
 O         -1.1525203541       -1.6737872804       -1.1427542499
 C          1.1450558977       -1.4086849625       -0.6888928612
 O          1.3367556574       -2.5619993663       -1.0450858828
 C          2.2281083869       -0.5227719798       -0.2392450996
 C          3.5366359347       -0.9976125256       -0.2245366932
 C          4.5748447454       -0.1804134442        0.1917109760
 C          4.3126103485        1.1184192446        0.5979068983
 C          3.0124610911        1.5993264146        0.5894682496
 C          1.9623153147        0.7893193729        0.1728988126
 C          0.5856985340        1.3284579663        0.1752339456
 O          0.3547534804        2.4738715523        0.5568228796
 H         -4.5955766784       -1.3360679679        1.6212075951
 H         -5.5508349141       -1.5947668626        0.1548814338
 H         -5.9244222535       -0.2425137720        1.2135392896
 H         -5.7022503970        0.2810666148       -1.4577689857
 H         -4.1504959021        0.9903600991       -1.9166220729
 H         -5.1580357090        1.7815895196       -0.7142397601
 H         -2.5148509703       -0.4319649397        1.1853107811
 H         -1.8372568783        1.9834331300        0.1968127600
 H         -2.1590980904        1.2297277344       -1.3578652781
 H         -2.0490664942       -1.2928607058       -1.0629246495
 H          3.7147410588       -2.0129569611       -0.5456033215
 H          5.5849409085       -0.5579170464        0.1986381532
 H          5.1179477367        1.7583721225        0.9218235200
 H          2.7859917013        2.6075240617        0.9030025496
  32
 Etot=  -51.4249661720 g norm=  0.00018058
 C         -4.7911489272       -0.8447311480        0.7361399301
 C         -3.5409519777       -0.0854454025        0.4134343623
 C         -2.6165298215        0.1358624361        1.5722508418
 C         -3.2818825267        0.3325076574       -0.8230827299
 C         -2.0678046507        1.1192089800       -1.2453317270
 C         -0.7487754262        0.4998766493       -0.8527726877
 C         -0.4815584470       -0.8172039337       -1.0502658855
 O         -1.3412476308       -1.6857826910       -1.5931477726
 C          0.8161611664       -1.4419516210       -0.6810177556
 O          1.0080813571       -2.6375777435       -0.8475977038
 C          1.8354401642       -0.5423421972       -0.1225241091
 C          3.0882114967       -1.0507528442        0.2089922787
 C          4.0658450493       -0.2206913577        0.7327690706
 C          3.7972632568        1.1241552379        0.9324289945
 C          2.5511145306        1.6386384608        0.6095690710
 C          1.5631855983        0.8163723055        0.0801341689
 C          0.2422673941        1.3906055180       -0.2517425449
 O         -0.0077953053        2.5728942163       -0.0250311661
 H         -5.3884937531       -1.0254520602       -0.1530794904
 H         -5.3918606330       -0.2852577521        1.4517238652
 H         -4.5380448881       -1.8001113180        1.1932228124
 H         -3.1867229831        0.2536155695        2.4906666792
 H         -1.9960626176        1.0171562900        1.4302801187
 H         -1.9580427592       -0.7251892341        1.6966164612
 H         -4.0145658161        0.1526382698       -1.5984626355
 H         -2.0929454658        2.1197100985       -0.8011201445
 H         -2.0836726955        1.2531599976       -2.3302127014
 H         -2.2080011122       -1.2673569473       -1.7606174247
 H          3.2722357583       -2.1020564051        0.0456792792
 H          5.0338764352       -0.6240145154        0.9840755101
 H          4.5555489858        1.7740129841        1.3395555283
 H          2.3203896109        2.6828726131        0.7592886565
  32
 Etot=  -51.4237155353 g norm=  0.00040542
 C         -4.9856273871       -0.6860485662        1.3342109068
 C         -4.1264771239       -0.0872357152        0.2603529205
 C         -4.8408710413        0.1418811503       -1.0364356592
 C         -2.8530936806        0.2185108092        0.4968959653
 C         -1.8814809666        0.8673361147       -0.4501401150
 C         -0.4753304229        0.3503806394       -0.2834016129
 C         -0.1998753749       -0.9799781684       -0.2787504616
 O         -1.1238898584       -1.9367935363       -0.4151273106
 C          1.1788491377       -1.5188421364       -0.1328924307
 O          1.3874090518       -2.7229997654       -0.1435482338
 C          2.2509703499       -0.5250276516        0.0182856126
 C          3.5662852971       -0.9568517340        0.1654062951
 C          4.5940253749       -0.0394204108        0.3100967159
 C          4.3148935695        1.3180548054        0.3081196428
 C          3.0083196234        1.7577813011        0.1623128626
 C          1.9682929976        0.8469197001        0.0169410314
 C          0.5844192617        1.3449874917       -0.1339138864
 O          0.3411721723        2.5498707418       -0.1328289339
 H         -5.8441209127       -0.0440475661        1.5244684628
 H         -4.4327745948       -0.8120793770        2.2609356396
 H         -5.3648557799       -1.6564338961        1.0174582086
 H         -5.5444340524        0.9654820026       -0.9206507709
 H         -5.4128687016       -0.7428586277       -1.3095550466
 H         -4.1663001484        0.3895524349       -1.8497393903
 H         -2.4499072552        0.0413803940        1.4868753895
 H         -1.8498330416        1.9454869655       -0.2613003004
 H         -2.1926601369        0.7322011262       -1.4890661257
 H         -2.0252731530       -1.5587780677       -0.4303403721
 H          3.7579564824       -2.0193459912        0.1641548148
 H          5.6092409653       -0.3846413091        0.4240030738
 H          5.1119393354        2.0358694395        0.4196890474
 H          2.7685125009        2.8106293069        0.1582503899
  32
 Etot=  -51.4237200663 g norm=  0.00035297
 C         -5.0785124332       -0.6579739051        1.1704494429
 C         -4.1890688682        0.0746464104        0.2102034759
 C         -4.8860248222        0.5511003578       -1.0276845663
 C         -2.9051151300        0.2827222627        0.4915577713
 C         -1.9060389791        1.0438863669       -0.3353334628
 C         -0.5186712203        0.4597285120       -0.2579029596
 C         -0.2862070393       -0.8615842086       -0.4718682308
 O         -1.2398782920       -1.7538103923       -0.7595231869
 C          1.0742953611       -1.4607174085       -0.4209291916
 O          1.2434466271       -2.6540260419       -0.6233805936
 C          2.1789051992       -0.5382406234       -0.1229215466
 C          3.4807002536       -1.0282559498       -0.0651475321
 C          4.5385489478       -0.1784101813        0.2133615979
 C          4.3030016591        1.1688724417        0.4370998318
 C          3.0100412669        1.6659771749        0.3827854057
 C          1.9403110998        0.8233455015        0.1033767780
 C          0.5722117375        1.3813255218        0.0514032228
 O          0.3668273295        2.5753278851        0.2589639598
 H         -5.9140752654       -0.0229707761        1.4602920218
 H         -4.5384663223       -0.9538699852        2.0656128493
 H         -5.4910228453       -1.5488859123        0.6992506463
 H         -5.5131677821        1.4076043009       -0.7829320850
 H         -5.5342565504       -0.2316054604       -1.4165932004
 H         -4.1951464187        0.8550380424       -1.8077053260
 H         -2.5137139238       -0.0741560638        1.4366664628
 H         -1.8389380040        2.0745689001        0.0284832072
 H         -2.2165842477        1.0934231280       -1.3821084754
 H         -2.1288846138       -1.3509390683       -0.7079816127
 H          3.6378486253       -2.0816833289       -0.2419940329
 H          5.5430973550       -0.5681756370        0.2554557629
 H          5.1235888415        1.8342596156        0.6535476898
 H          2.8043814080        2.7121713316        0.5535844365
  32
 Etot=  -51.4236825639 g norm=  0.00039299
 C         -5.0506379654       -0.5901633771        1.2314657390
 C         -4.1559565824        0.0144334173        0.1905579624
 C         -4.8260090201        0.2600565677       -1.1274346479
 C         -2.8904474649        0.3175616462        0.4702335191
 C         -1.8935818083        0.9829099017       -0.4374444615
 C         -0.5035362190        0.4183143165       -0.2896984916
 C         -0.2658813566       -0.9174086030       -0.3602637745
 O         -1.2175823502       -1.8373044211       -0.5514802489
 C          1.0970883570       -1.5022990746       -0.2489900799
 O          1.2728816664       -2.7082964425       -0.3390123309
 C          2.1955335948       -0.5501213840       -0.0323848826
 C          3.4977751002       -1.0267706925        0.0903199298
 C          4.5495199339       -0.1494068082        0.2973092048
 C          4.3075045387        1.2124443807        0.3833270478
 C          3.0142855345        1.6967264430        0.2617466215
 C          1.9505348152        0.8264261755        0.0535971921
 C          0.5819360488        1.3717044654       -0.0714942428
 O          0.3716466881        2.5803216874        0.0066133109
 H         -4.5315976786       -0.7142332292        2.1778237579
 H         -5.4141067574       -1.5620998903        0.9010064389
 H         -5.9180656294        0.0485673954        1.3898509200
 H         -5.4317236692        1.1634080838       -1.0640438937
 H         -5.4898434050       -0.5671076358       -1.3692355777
 H         -4.1176037584        0.3896913736       -1.9399683031
 H         -2.5158206343        0.1259210440        1.4684344616
 H         -1.8328231030        2.0484300347       -0.1928119448
 H         -2.2022955338        0.9102902366       -1.4832496314
 H         -2.1072200158       -1.4317648858       -0.5334911373
 H          3.6602987094       -2.0917937695        0.0198886625
 H          5.5543524105       -0.5291648960        0.3915007166
 H          5.1232938868        1.8991987194        0.5443505204
 H          2.8034581984        2.7538642133        0.3255887620
  32
 Etot=  -51.4239559547 g norm=  0.00023457
 C         -4.3555995031        0.8925965512        1.9617892724
 C         -3.5513724472        0.9349836152        0.6978609635
 C         -3.5317979570        2.2607137861       -0.0073615065
 C         -2.9273966891       -0.1461865480        0.2438700484
 C         -2.0876304801       -0.2173335385       -1.0058239615
 C         -0.6385767556       -0.3816589980       -0.6184447820
 C         -0.1101566940       -1.5873982826       -0.2845249845
 O         -0.7879292333       -2.7421201549       -0.3002035810
 C          1.3067590831       -1.7619597626        0.1306164632
 O          1.7525834358       -2.8699171920        0.3917714966
 C          2.1190937500       -0.5397101633        0.1990980167
 C          3.4512649040       -0.6262425425        0.5933967873
 C          4.2364919612        0.5126000088        0.6665848439
 C          3.6951560009        1.7475639708        0.3467225169
 C          2.3700161423        1.8434256586       -0.0490274473
 C          1.5721426673        0.7076268123       -0.1271717567
 C          0.1633922712        0.8390822894       -0.5548333832
 O         -0.3065763499        1.9353507428       -0.8482949476
 H         -3.9428892810        1.5936907177        2.6861853748
 H         -4.3571655793       -0.1017820105        2.4002754214
 H         -5.3831637889        1.1906845033        1.7590873589
 H         -2.5149296792        2.5461856805       -0.2718669171
 H         -3.9540554101        3.0343394006        0.6274919502
 H         -4.1180405605        2.2144573193       -0.9243790644
 H         -2.9739732325       -1.0607190019        0.8209354627
 H         -2.1830987552        0.7050260492       -1.5759429559
 H         -2.4191458297       -1.0461125480       -1.6366238983
 H         -1.7028024831       -2.6225141020       -0.6080379489
 H          3.8491946085       -1.5996587845        0.8379181412
 H          5.2673245390        0.4343872062        0.9731973246
 H          4.3028186070        2.6367298155        0.4018945449
 H          1.9293796817        2.7957511917       -0.3034473953
  32
 Etot=  -51.4239555190 g norm=  0.00036431
 C         -4.3717631657        1.3497903640        1.7916636225
 C         -3.5928756197        1.0749065721        0.5411557576
 C         -3.6007032229        2.1795288963       -0.4762619099
 C         -2.9671737594       -0.0831720813        0.3621779069
 C         -2.1543804971       -0.4660299697       -0.8482081573
 C         -0.6941551266       -0.5132997415       -0.4706183269
 C         -0.1432083957       -1.5836312372        0.1583054016
 O         -0.8074392524       -2.7040249949        0.4688617382
 C          1.2848394198       -1.6330646721        0.5690336732
 O          1.7490523656       -2.6272086930        1.1080992751
 C          2.0844565235       -0.4337152886        0.2847608416
 C          3.4265441297       -0.4046086996        0.6535073831
 C          4.2009717173        0.7142721805        0.3946072026
 C          3.6389499584        1.8137899102       -0.2346227683
 C          2.3034163501        1.7939856218       -0.6056203428
 C          1.5159822995        0.6767401710       -0.3518266805
 C          0.0952220648        0.6828801146       -0.7597225287
 O         -0.3945198850        1.6578824335       -1.3243461255
 H         -5.4038055763        1.5901934463        1.5412269538
 H         -3.9473541773        2.2081797828        2.3109543945
 H         -4.3618707820        0.4957638464        2.4636035754
 H         -2.5953496528        2.3818698054       -0.8419096325
 H         -4.0005181078        3.0915113003       -0.0422696874
 H         -4.2214932662        1.9078690888       -1.3293304449
 H         -2.9931778360       -0.8215569549        1.1532486175
 H         -2.2769129589        0.2772292232       -1.6340113195
 H         -2.4878746604       -1.4319796345       -1.2359414428
 H         -1.7306367779       -2.6749981926        0.1641619331
 H          3.8407098911       -1.2739111634        1.1418182222
 H          5.2398362141        0.7262585270        0.6835428571
 H          4.2384216885        2.6868308813       -0.4385962643
 H          1.8465832434        2.6399004597       -1.0971692612
  32
 Etot=  -51.4237247941 g norm=  0.00031506
 C         -5.0105365433       -0.6253231926        1.3954298217
 C         -4.1322279898       -0.0482706254        0.3253971063
 C         -4.8201057128        0.1497134690       -0.9912016189
 C         -2.8652946337        0.2710287211        0.5801714003
 C         -1.8831567622        0.9115207983       -0.3605417556
 C         -0.4847856831        0.3694922843       -0.2066282597
 C         -0.2320977651       -0.9653642159       -0.1967712334
 O         -1.1744260702       -1.9072015781       -0.3106794459
 C          1.1397610811       -1.5267259128       -0.0719070806
 O          1.3272673791       -2.7343795387       -0.0756561756
 C          2.2317788511       -0.5505318600        0.0487400441
 C          3.5425312844       -1.0038748994        0.1692707428
 C          4.5885324768       -0.1032788469        0.2863643339
 C          4.3321124821        1.2586740802        0.2842178788
 C          3.0302297710        1.7197549376        0.1646714163
 C          1.9722028669        0.8259470997        0.0458658494
 C          0.5941565964        1.3465703171       -0.0798308384
 O          0.3712143888        2.5553789832       -0.0783945641
 H         -5.3697274549       -1.6100851217        1.1000211276
 H         -5.8814840954        0.0112556939        1.5428807078
 H         -4.4803220431       -0.7151856777        2.3395337820
 H         -5.4555166919        1.0331859289       -0.9392162467
 H         -5.4582204702       -0.7033357914       -1.2115246613
 H         -4.1232512797        0.2871849780       -1.8123657842
 H         -2.4789866633        0.1163101926        1.5804531557
 H         -1.8322228958        1.9865987503       -0.1588528216
 H         -2.1996955423        0.7959702325       -1.4001881287
 H         -2.0693685729       -1.5121744115       -0.3066060834
 H          3.7160902696       -2.0694966910        0.1689803424
 H          5.6001476688       -0.4650377141        0.3791461967
 H          5.1432903160        1.9634703887        0.3752789090
 H          2.8082945628        2.7765098457        0.1607406384
  32
 Etot=  -51.4235906993 g norm=  0.00017157
 C         -5.0519225757       -0.6682202476        1.2549553970
 C         -4.1902371756        0.0782757663        0.2805419980
 C         -4.9463922744        0.7242428533       -0.8402270212
 C         -2.8717468212        0.1411709065        0.4374747172
 C         -1.9000373702        0.8806454430       -0.4459590992
 C         -0.4966052608        0.3457870796       -0.3344954752
 C         -0.2145360995       -0.9656792935       -0.5490897099
 O         -1.1286834330       -1.8859351064       -0.8744672514
 C          1.1620244090       -1.5215057588       -0.4569958257
 O          1.3781515739       -2.7047806447       -0.6728333720
 C          2.2230589624       -0.5695907830       -0.0990362697
 C          3.5349678138       -1.0211293481        0.0150579147
 C          4.5524219879       -0.1433331117        0.3514738667
 C          4.2661646692        1.1938726909        0.5763523308
 C          2.9629099434        1.6530391232        0.4646351491
 C          1.9332600465        0.7819179909        0.1279914499
 C          0.5530623809        1.2998335320        0.0162128359
 O          0.3046466522        2.4878631171        0.2105197341
 H         -5.6650241660       -1.4004194234        0.7320563953
 H         -5.7246233242        0.0218444088        1.7625896818
 H         -4.4526082538       -1.1800652132        2.0028003622
 H         -5.7447681408        1.3411054682       -0.4316672218
 H         -5.4104124179       -0.0372171307       -1.4663056831
 H         -4.3133263216        1.3517079645       -1.4582582199
 H         -2.4241770903       -0.3302758878        1.3038797226
 H         -1.8645635619        1.9358712674       -0.1551208023
 H         -2.2188915969        0.8419887011       -1.4911583618
 H         -2.0293129863       -1.5124049931       -0.8791707833
 H          3.7324776654       -2.0670927188       -0.1658621230
 H          5.5651733482       -0.5036021065        0.4369830306
 H          5.0550914849        1.8808595117        0.8383628846
 H          2.7178341963        2.6907925017        0.6348539511
  32
 Etot=  -51.4239646490 g norm=  0.00057459
 C         -4.4844688150        1.1713252073        1.6185727137
 C         -3.6734841783        0.9529563596        0.3774405455
 C         -3.6921757407        2.0845762453       -0.6097949431
 C         -3.0112617977       -0.1815355549        0.1794987344
 C         -2.1623016458       -0.5051879371       -1.0232523675
 C         -0.7116704235       -0.5423384171       -0.6099322524
 C         -0.1526837522       -1.6328897518       -0.0240949005
 O         -0.7994188677       -2.7815042258        0.2116112044
 C          1.2670945383       -1.6757252220        0.4148630830
 O          1.7440187405       -2.6915101360        0.8995942249
 C          2.0429112309       -0.4423992080        0.2264564833
 C          3.3722217181       -0.4024097248        0.6380267051
 C          4.1234085761        0.7495154988        0.4719944748
 C          3.5509557629        1.8710224901       -0.1070933244
 C          2.2283146663        1.8402427597       -0.5210287407
 C          1.4641069666        0.6900652851       -0.3600968296
 C          0.0571756366        0.6845414319       -0.8135643635
 O         -0.4387860457        1.6758807704       -1.3429688503
 H         -4.1001583471        2.0317449941        2.1652118375
 H         -4.4570371329        0.3026264251        2.2709562583
 H         -5.5195595962        1.3813448592        1.3539704874
 H         -4.1431157489        2.9676701346       -0.1664975835
 H         -4.2711329019        1.8123749072       -1.4914519021
 H         -2.6832970484        2.3357649079       -0.9335413717
 H         -3.0315096071       -0.9433639637        0.9482529446
 H         -2.2781845999        0.2656595015       -1.7829523919
 H         -2.4695847575       -1.4607839587       -1.4557486453
 H         -1.7166703006       -2.7547786346       -0.1108105491
 H          3.7947606508       -1.2892455593        1.0861102484
 H          5.1525997922        0.7698267081        0.7934034471
 H          4.1318380287        2.7702179022       -0.2370921464
 H          1.7641506197        2.7022058046       -0.9763687125
  32
 Etot=  -51.4236514316 g norm=  0.00033779
 C         -4.8767434297       -0.1425397840        1.8027551599
 C         -4.0507285915        0.0258692644        0.5618487092
 C         -4.7832350705       -0.2931305064       -0.7057913252
 C         -2.7900042429        0.4463768775        0.6339813943
 C         -1.8507575073        0.7169515015       -0.5085731426
 C         -0.4348884377        0.2937993219       -0.2095498130
 C         -0.1440210563       -0.9500413920        0.2530916667
 O         -1.0598139046       -1.8950999619        0.4897155878
 C          1.2445268175       -1.4025975911        0.5355151162
 O          1.4661111749       -2.5322653301        0.9458479477
 C          2.3096326603       -0.4208658821        0.2878548206
 C          3.6343875391       -0.7769823890        0.5249747837
 C          4.6561422784        0.1306455642        0.2988673394
 C          4.3611210333        1.4028614896       -0.1649889880
 C          3.0448395032        1.7670657884       -0.4032009854
 C          2.0108903982        0.8646336226       -0.1817043066
 C          0.6169388561        1.2798192466       -0.4470722894
 O          0.3592677115        2.4111081397       -0.8529594941
 H         -5.2166419454       -1.1731021057        1.8942435851
 H         -5.7605913839        0.4910316383        1.7492369502
 H         -4.3132654389        0.1201926011        2.6938246067
 H         -5.3148987420       -1.2371070967       -0.6021157691
 H         -4.1267581662       -0.3528909138       -1.5679679624
 H         -5.5240806046        0.4813963294       -0.9003728572
 H         -2.3726655362        0.6768476561        1.6069164739
 H         -1.8257852947        1.7923531324       -0.7133170678
 H         -2.1870630675        0.2227903955       -1.4233132021
 H         -1.9661822455       -1.5471322241        0.3759809739
 H          3.8378088060       -1.7734167140        0.8875658878
 H          5.6790132330       -0.1558809670        0.4844498315
 H          5.1534611933        2.1124922055       -0.3429643211
 H          2.7929780747        2.7530349944       -0.7643626726
  32
 Etot=  -51.4237355446 g norm=  0.00033380
 C         -5.0454986198       -0.4770015280       -1.2936062586
 C         -4.1498347702       -0.0530553622       -0.1677832343
 C         -4.8193872917       -0.0268995021        1.1725345538
 C         -2.8829963950        0.2864769296       -0.3938868721
 C         -1.8818768628        0.7793060978        0.6138129524
 C         -0.4827008202        0.2965751286        0.3283694699
 C         -0.2132679232       -1.0132031915        0.0883547923
 O         -1.1366619842       -1.9803116263        0.0826619478
 C          1.1581811222       -1.5177987000       -0.1898356711
 O          1.3586457017       -2.7027161854       -0.4119907214
 C          2.2332740133       -0.5159027304       -0.1766402597
 C          3.5440709778       -0.9179630536       -0.4179714281
 C          4.5745909540        0.0076735096       -0.4102672944
 C          4.3025323541        1.3436133151       -0.1613321506
 C          3.0002202249        1.7538832018        0.0783369044
 C          1.9575881380        0.8344694225        0.0734573434
 C          0.5782553648        1.3011645031        0.3295335576
 O          0.3398030947        2.4891104773        0.5365733604
 H         -5.9235029512        0.1655787598       -1.3317784800
 H         -5.3913052255       -1.4977426125       -1.1362374118
 H         -4.5330171122       -0.4256768815       -2.2503278358
 H         -5.4612221810       -0.8978315638        1.2874034751
 H         -5.4485540836        0.8594645020        1.2456601062
 H         -4.1107085836       -0.0018315444        1.9946179449
 H         -2.5113710816        0.2675124477       -1.4114226739
 H         -2.1646020948        0.4837912780        1.6274105000
 H         -1.8516056388        1.8737491901        0.5964122412
 H         -2.0367856373       -1.6119425018        0.1841956896
 H          3.7300012095       -1.9640503997       -0.6098042335
 H          5.5864166050       -0.3143560445       -0.5982081620
 H          5.1018594369        2.0675184883       -0.1533437402
 H          2.7660160882        2.7898038387        0.2733098674
  32
 Etot=  -51.4236936738 g norm=  0.00046962
 C         -5.0918743590       -0.1449158642        1.5104435563
 C         -4.1930870287        0.3995908915        0.4442687527
 C         -4.8645180140        1.1470374352       -0.6706697161
 C         -2.8756542831        0.2281655047        0.4809773733
 C         -1.9311592656        0.7724105906       -0.5597478126
 C         -0.5240841716        0.2673145568       -0.3937479513
 C         -0.2348975304       -1.0597610178       -0.4223119219
 O         -1.1439191127       -2.0226524902       -0.6112076839
 C          1.1441399289       -1.5900585195       -0.2517776955
 O          1.3664332858       -2.7906948142       -0.3005322035
 C          2.1990336085       -0.5925215291       -0.0239583747
 C          3.5109918700       -1.0177661029        0.1660588131
 C          4.5224485434       -0.0967911092        0.3842245455
 C          4.2305869567        1.2577708888        0.4107708898
 C          2.9274687124        1.6909700831        0.2210061803
 C          1.9032975008        0.7763688513        0.0043572598
 C          0.5226519129        1.2670529979       -0.1924977020
 O          0.2714790839        2.4702288201       -0.1867696854
 H         -5.8327260055       -0.8104983036        1.0696184705
 H         -5.6261112860        0.6689885987        1.9987821733
 H         -4.5285567428       -0.6926418248        2.2614098187
 H         -4.4164183234        2.1319600643       -0.7932059771
 H         -5.9243306663        1.2681191752       -0.4688182655
 H         -4.7533024636        0.6160148864       -1.6156550746
 H         -2.4205160095       -0.2905036409        1.3140976625
 H         -1.8950962775        1.8649053474       -0.4917677611
 H         -2.2990860915        0.5311476119       -1.5628677924
 H         -2.0451664187       -1.6614428255       -0.6867837788
 H          3.7126832354       -2.0781177476        0.1401931242
 H          5.5355120190       -0.4367003642        0.5288883060
 H          5.0154084259        1.9784806238        0.5770254468
 H          2.6786176065        2.7416388613        0.2352631598
  32
 Etot=  -51.4249648554 g norm=  0.00022095
 C         -4.8170244084       -0.7359680469        0.7437777228
 C         -3.5554916749       -0.0142204120        0.3816977336
 C         -2.6363429663        0.2710043989        1.5306822032
 C         -3.2823101005        0.3184168916       -0.8775198914
 C         -2.0551611999        1.0605893234       -1.3406914376
 C         -0.7469605901        0.4545256474       -0.8948664043
 C         -0.4953906683       -0.8766174835       -0.9944883618
 O         -1.3625344979       -1.7717063365       -1.4793351985
 C          0.7914828042       -1.4889971912       -0.5704095975
 O          0.9675875052       -2.6963582098       -0.6444447145
 C          1.8209069071       -0.5630866518       -0.0774990875
 C          3.0673127764       -1.0605166356        0.2922142694
 C          4.0540754155       -0.2059790169        0.7561514716
 C          3.8009155735        1.1527741706        0.8574009081
 C          2.5613366801        1.6569417333        0.4953221658
 C          1.5644836199        0.8098873016        0.0248655089
 C          0.2510847299        1.3738844399       -0.3513434844
 O          0.0138647077        2.5719818169       -0.2099527843
 H         -5.4130626260       -0.1269525903        1.4217899035
 H         -4.5782285227       -1.6654960178        1.2583515277
 H         -5.4135519119       -0.9619750695       -0.1356091004
 H         -1.9913073081       -0.5889925249        1.7172124879
 H         -3.2115470549        0.4572694456        2.4345350358
 H         -2.0024120831        1.1323091407        1.3356768294
 H         -4.0117279776        0.0975613873       -1.6453808891
 H         -2.0719497455        2.0891809467       -0.9654953150
 H         -2.0600636516        1.1211168819       -2.4321980418
 H         -2.2228521425       -1.3556154382       -1.6825435541
 H          3.2388678682       -2.1230907694        0.2067821101
 H          5.0169682758       -0.6012160335        1.0379611608
 H          4.5665521954        1.8217029351        1.2170645047
 H          2.3430771053        2.7119918552        0.5673429343
  32
 Etot=  -51.4236969488 g norm=  0.00024012
 C         -5.0484149304        0.0802156507        1.7011831633
 C         -4.1655496297        0.4714047234        0.5572032031
 C         -4.8526075987        1.0657210686       -0.6376860499
 C         -2.8481149823        0.3013037574        0.5963686818
 C         -1.9200220802        0.6971361696       -0.5233701856
 C         -0.5061871288        0.2339301442       -0.3017708682
 C         -0.1996252143       -1.0822344117       -0.1631733342
 O         -1.0961451525       -2.0731951127       -0.2217533276
 C          1.1873717845       -1.5692216374        0.0643734439
 O          1.4249734374       -2.7635027762        0.1690884217
 C          2.2304420370       -0.5377628218        0.1541865464
 C          3.5499340053       -0.9191846401        0.3814367264
 C          4.5502956791        0.0346536817        0.4727907800
 C          4.2395311632        1.3782739741        0.3359672092
 C          2.9288600852        1.7677421478        0.1075748863
 C          1.9159377928        0.8200930674        0.0151752643
 C          0.5274327092        1.2645105814       -0.2301735874
 O          0.2595846755        2.4557974603       -0.3701174595
 H         -4.4739571416       -0.3618271396        2.5109011291
 H         -5.7970526609       -0.6367041440        1.3669256075
 H         -5.5735237688        0.9550007110        2.0822176585
 H         -4.7434374553        0.4208242475       -1.5090057108
 H         -4.4138392389        2.0305807961       -0.8878209490
 H         -5.9121675456        1.2036903108       -0.4441683446
 H         -2.3802317252       -0.1019671400        1.4844217332
 H         -1.8953844676        1.7883385474       -0.6137079388
 H         -2.2958546057        0.3103156320       -1.4767820982
 H         -2.0026651049       -1.7375132982       -0.3376110049
 H          3.7665844201       -1.9718425797        0.4840959828
 H          5.5691513697       -0.2715698076        0.6491202394
 H          5.0150970722        2.1243218774        0.4067666611
 H          2.6649670281        2.8089108826       -0.0028411155
  32
 Etot=  -51.4237182732 g norm=  0.00027151
 C         -5.0284156614       -0.5832293251        1.4136008589
 C         -4.1474455757       -0.0406051194        0.3278745588
 C         -4.8324402596        0.1169773054       -0.9954857052
 C         -2.8806197256        0.2840314116        0.5755206258
 C         -1.8928011287        0.8906128291       -0.3818110827
 C         -0.4963232622        0.3552007664       -0.1924010609
 C         -0.2435575549       -0.9787113706       -0.1403850668
 O         -1.1827246575       -1.9245336830       -0.2475773101
 C          1.1252576361       -1.5348899731        0.0321127973
 O          1.3132503860       -2.7419303443        0.0681876965
 C          2.2137070581       -0.5544938770        0.1508836676
 C          3.5209763007       -1.0031624941        0.3186555757
 C          4.5637134738       -0.0988937670        0.4344257947
 C          4.3076717296        1.2623335568        0.3831784782
 C          3.0094475635        1.7187506665        0.2164232609
 C          1.9544481833        0.8210120901        0.0993933350
 C          0.5797821578        1.3365789944       -0.0746073107
 O          0.3567815227        2.5445841216       -0.1173067915
 H         -5.8989559904        0.0583383101        1.5401479927
 H         -4.4995766024       -0.6446136197        2.3607026192
 H         -5.3877488867       -1.5763021089        1.1479938282
 H         -5.4787250603        0.9934175272       -0.9669644653
 H         -5.4596197412       -0.7487016238       -1.1973744123
 H         -4.1344491542        0.2434363139       -1.8171097559
 H         -2.4971349163        0.1581575495        1.5809451978
 H         -1.8440735603        1.9725240451       -0.2202632190
 H         -2.2005534762        0.7356715752       -1.4188546993
 H         -2.0780292332       -1.5323309833       -0.2750667637
 H          3.6937653148       -2.0682450831        0.3561146006
 H          5.5724878115       -0.4566187952        0.5656781995
 H          5.1168006899        1.9695509436        0.4728333602
 H          2.7879420575        2.7747146952        0.1736982737
  32
 Etot=  -51.4236697993 g norm=  0.00030998
 C         -5.1249768532       -0.5721753637       -1.0200671551
 C         -4.1563904362       -0.0179511333       -0.0219819790
 C         -4.7255993932        0.3086194417        1.3295050551
 C         -2.8758342599        0.1767272893       -0.3270217039
 C         -1.8497778115        0.7618790758        0.6045959191
 C         -0.4532426291        0.2703994600        0.3284262032
 C         -0.1756925495       -1.0532314907        0.1986858973
 O         -1.0918648171       -2.0229617222        0.2967703167
 C          1.1947227497       -1.5702810236       -0.0575871895
 O          1.4042512817       -2.7694410683       -0.1672142861
 C          2.2587272653       -0.5619275332       -0.1643874063
 C          3.5675769216       -0.9733857551       -0.4003579889
 C          4.5875958536       -0.0421640514       -0.5064957437
 C          4.3067599521        1.3088141095       -0.3775858075
 C          3.0065137270        1.7283026019       -0.1425908356
 C          1.9743584580        0.8034607631       -0.0338649397
 C          0.5971883402        1.2798235552        0.2163250302
 O          0.3518573039        2.4791938518        0.3267935229
 H         -5.9159911688        0.1516991986       -1.2112061499
 H         -5.5908242386       -1.4749618091       -0.6276390501
 H         -4.6346071572       -0.8087636379       -1.9605973639
 H         -4.2776401775       -0.3118152701        2.1047882435
 H         -5.7985867001        0.1427559560        1.3404148634
 H         -4.5331467763        1.3492735784        1.5839284210
 H         -2.5227936681       -0.0380055667       -1.3276324090
 H         -2.1117032033        0.5421005601        1.6435408863
 H         -1.8328983438        1.8523010457        0.5024607588
 H         -1.9919871206       -1.6504145526        0.3792862861
 H          3.7603812072       -2.0312867705       -0.4969912526
 H          5.5979749498       -0.3716423813       -0.6892725103
 H          5.0977057741        2.0373316492       -0.4594123779
 H          2.7660018458        2.7758806432       -0.0390898800
  32
 Etot=  -51.4237453111 g norm=  0.00063110
 C         -5.0110768666        0.1155426930        1.6802115659
 C         -4.1686629244        0.2543103174        0.4469219088
 C         -4.9239413572        0.0794920058       -0.8353102719
 C         -2.8719376850        0.5385288477        0.5341508902
 C         -1.9136771832        0.7617115037       -0.6037995475
 C         -0.5151603668        0.3051685875       -0.2770276460
 C         -0.2648197306       -0.9486643606        0.1820159294
 O         -1.2074824134       -1.8750171603        0.3840220608
 C          1.1049113808       -1.4340236181        0.4997066065
 O          1.2911648295       -2.5745288087        0.8973327224
 C          2.1962514423       -0.4694170451        0.3039845907
 C          3.5042978132       -0.8522827202        0.5875494298
 C          4.5501212792        0.0388768059        0.4112680540
 C          4.2960447813        1.3210242675       -0.0492655037
 C          2.9966116308        1.7119702817       -0.3332508012
 C          1.9389013669        0.8264610807       -0.1616472802
 C          0.5636967976        1.2703618188       -0.4744243739
 O          0.3430158198        2.4080223135       -0.8842932868
 H         -5.4511110200       -0.8794771415        1.7278338637
 H         -5.8277128127        0.8352806230        1.6544966182
 H         -4.4269806184        0.2831993838        2.5808914244
 H         -5.6052504676       -0.7653135354       -0.7565618966
 H         -4.2706303947       -0.0733266105       -1.6886567407
 H         -5.5223050567        0.9695365554       -1.0270855292
 H         -2.4343445536        0.6830061161        1.5145949704
 H         -1.8562680590        1.8313437657       -0.8309402490
 H         -2.2558200261        0.2582133905       -1.5117378242
 H         -2.1025379407       -1.5119267492        0.2402527387
 H          3.6759280064       -1.8561242944        0.9460847939
 H          5.5596630461       -0.2681948553        0.6333370749
 H          5.1069994059        2.0183808525       -0.1872269413
 H          2.7767443855        2.7060438365       -0.6930531075
  32
 Etot=  -51.4237256308 g norm=  0.00077344
 C         -5.0591347978        0.2337117340        1.7212242904
 C         -4.1777239720        0.5049756675        0.5420384760
 C         -4.8761883840        0.8882150783       -0.7302238991
 C         -2.8539903851        0.4084233513        0.6166240092
 C         -1.9269373696        0.6929240602       -0.5367269593
 C         -0.5157765268        0.2348616764       -0.2871840319
 C         -0.2281417454       -1.0589060294        0.0107786634
 O         -1.1450724897       -2.0283479745        0.1057310703
 C          1.1568339458       -1.5437399585        0.2526022376
 O          1.3780033908       -2.7215337009        0.4920874818
 C          2.2195869447       -0.5307521134        0.1842241470
 C          3.5383030318       -0.9080445076        0.4227310875
 C          4.5568848024        0.0291017415        0.3681797957
 C          4.2652879422        1.3513072547        0.0723541106
 C          2.9556651471        1.7359793922       -0.1697937035
 C          1.9245715345        0.8051579193       -0.1161242838
 C          0.5375334752        1.2439144737       -0.3791442075
 O          0.2865233637        2.4124609616       -0.6657440926
 H         -4.4780725960       -0.0635809500        2.5901056283
 H         -5.7687754743       -0.5574802558        1.4831086400
 H         -5.6301952178        1.1264895695        1.9719074691
 H         -4.7653806208        0.1080569570       -1.4825562938
 H         -4.4513779463        1.8034788277       -1.1386189970
 H         -5.9363856563        1.0435771891       -0.5540367085
 H         -2.3811030325        0.1612133468        1.5576996545
 H         -1.8893497667        1.7716093298       -0.7231814217
 H         -2.3112866408        0.2270958160       -1.4502427467
 H         -2.0478705781       -1.6818235686       -0.0133147629
 H          3.7392756459       -1.9439877328        0.6510170542
 H          5.5747625271       -0.2731282231        0.5563051835
 H          5.0551797046        2.0842559267        0.0288532357
 H          2.7066797163        2.7603389113       -0.4036345088
  32
 Etot=  -51.4237556233 g norm=  0.00064202
 C         -5.0802644796        0.3060831427        1.6745022045
 C         -4.1959428506        0.5149450417        0.4848779549
 C         -4.8914224966        0.8133596321       -0.8116831889
 C         -2.8713917787        0.4441496314        0.5740355491
 C         -1.9372027430        0.6739050323       -0.5854372709
 C         -0.5255824899        0.2407390253       -0.2961896868
 C         -0.2360372227       -1.0305095382        0.0857336168
 O         -1.1498013889       -1.9971424512        0.2263310208
 C          1.1465208631       -1.4896095853        0.3848106561
 O          1.3672498813       -2.6445939527        0.7180433765
 C          2.2071077269       -0.4807924608        0.2532335032
 C          3.5250953771       -0.8370230022        0.5258332394
 C          4.5431884167        0.0946475377        0.4047749236
 C          4.2513240780        1.3903685165        0.0092119783
 C          2.9417520468        1.7548182211       -0.2632004965
 C          1.9113295914        0.8294170846       -0.1443454879
 C          0.5241343391        1.2467512215       -0.4405081461
 O          0.2708227225        2.3957849986       -0.7959419455
 H         -5.7780155448       -0.5080759028        1.4834168673
 H         -5.6644416100        1.2050637959        1.8662006085
 H         -4.4996981592        0.0718023503        2.5626600581
 H         -4.5288602049        1.7509929779       -1.2300672573
 H         -5.9642031343        0.8900125175       -0.6635451053
 H         -4.7006013340        0.0314474549       -1.5454340320
 H         -2.4034163641        0.2603440787        1.5319207210
 H         -1.9064120385        1.7408992191       -0.8311207613
 H         -2.3093969662        0.1561124644       -1.4759135980
 H         -2.0522260084       -1.6644463595        0.0698154704
 H          3.7265967445       -1.8529034608        0.8311273322
 H          5.5605656653       -0.1915465718        0.6191051716
 H          5.0403185827        2.1193930229       -0.0852053426
 H          2.6923914459        2.7596828251       -0.5699421832
  32
 Etot=  -51.4249707283 g norm=  0.00039282
 C         -4.7271264272       -0.7462107280        0.9348230657
 C         -3.4833119626       -0.0333445480        0.5005539286
 C         -2.5332999887        0.3134354947        1.6066847197
 C         -3.2511008421        0.2407412092       -0.7806889018
 C         -2.0451893519        0.9688604282       -1.3164521928
 C         -0.7193528165        0.3967406314       -0.8780506740
 C         -0.4563203279       -0.9351413323       -0.9229514135
 O         -1.3247048331       -1.8597220484       -1.3462533159
 C          0.8453707069       -1.5156794943       -0.4993791337
 O          1.0297026200       -2.7239440443       -0.5153387501
 C          1.8774763579       -0.5584184105       -0.0768628819
 C          3.1371319061       -1.0270603577        0.2857151904
 C          4.1269438183       -0.1428349940        0.6828121692
 C          3.8634340856        1.2171534164        0.7245086833
 C          2.6102131363        1.6927043971        0.3703870937
 C          1.6103524036        0.8156268489       -0.0339909063
 C          0.2823318459        1.3494691103       -0.4029754840
 O          0.0357026366        2.5504083373       -0.3097390564
 H         -5.3458410177       -1.0221600729        0.0854561023
 H         -5.3098584141       -0.1078312945        1.5973783994
 H         -4.4649723241       -1.6457836270        1.4896777851
 H         -1.8745336419       -0.5314172536        1.8136823521
 H         -3.0831438639        0.5371825500        2.5178300959
 H         -1.9139480265        1.1699616698        1.3527586063
 H         -4.0012521113       -0.0225691608       -1.5144346600
 H         -2.0615100998        2.0148700448       -0.9929644670
 H         -2.0818622266        0.9741734670       -2.4090171958
 H         -2.1928233944       -1.4623130841       -1.5524943366
 H          3.3168630804       -2.0909833199        0.2464477321
 H          5.1003720346       -0.5157656199        0.9584231675
 H          4.6310411343        1.9091020302        1.0330724029
 H          2.3830497910        2.7479599419        0.3991062543
  32
 Etot=  -51.4236961240 g norm=  0.00034841
 C         -4.9332591853       -0.0377890566        1.6938969135
 C         -4.0836359161        0.0495348612        0.4604708524
 C         -4.7911686334       -0.3544187042       -0.7971092056
 C         -2.8254284818        0.4781525856        0.5282082368
 C         -1.8683135790        0.6829732951       -0.6130202871
 C         -0.4550171311        0.2870769087       -0.2679345879
 C         -0.1654762570       -0.9219534229        0.2797836629
 O         -1.0809192700       -1.8532707326        0.5664343205
 C          1.2209468719       -1.3477372155        0.6101877784
 O          1.4410568661       -2.4438569627        1.1039430430
 C          2.2862370637       -0.3829434806        0.3030416117
 C          3.6099215108       -0.7193694673        0.5726995456
 C          4.6317806980        0.1727275670        0.2918098883
 C          4.3378989246        1.4097694110       -0.2597256024
 C          3.0226698879        1.7545993822       -0.5300670624
 C          1.9886643457        0.8671881234       -0.2544289118
 C          0.5957026326        1.2607965666       -0.5552971262
 O          0.3379601550        2.3647746487       -1.0301709857
 H         -4.3841226758        0.2754761898        2.5775392377
 H         -5.2835605379       -1.0581494613        1.8420564992
 H         -5.8106728969        0.5978535267        1.5852519452
 H         -4.1172614199       -0.4737487193       -1.6393837022
 H         -5.5256138177        0.4059684536       -1.0595653249
 H         -5.3271182516       -1.2887049241       -0.6400571055
 H         -2.4266631667        0.7718577868        1.4918206555
 H         -1.8452188827        1.7440539553       -0.8826582823
 H         -2.1876311315        0.1324474847       -1.5012669075
 H         -1.9867521371       -1.5165077186        0.4179825409
 H          3.8123224294       -1.6884295947        1.0035779401
 H          5.6538625902       -0.0984439794        0.5030400400
 H          5.1303783099        2.1072400218       -0.4801606107
 H          2.7717284441        2.7131519954       -0.9592886291
  32
 Etot=  -51.4249768316 g norm=  0.00036746
 C         -4.7310654750       -0.6270339084        1.0911916625
 C         -3.4938752119        0.0400507727        0.5736521804
 C         -2.5517249543        0.5352528685        1.6291067489
 C         -3.2586853169        0.1521486884       -0.7311025875
 C         -2.0554703036        0.8173096404       -1.3487430898
 C         -0.7302612451        0.3078000993       -0.8369300945
 C         -0.4583067445       -1.0191022657       -0.7345497667
 O         -1.3141048909       -1.9909176510       -1.0676734792
 C          0.8409081593       -1.5409090063       -0.2337770305
 O          1.0381993060       -2.7429489919       -0.1322429486
 C          1.8526914847       -0.5353981652        0.1200924272
 C          3.1019398202       -0.9523340388        0.5710587392
 C          4.0716595303       -0.0227502839        0.9095956995
 C          3.7986720706        1.3317532765        0.8023222883
 C          2.5565360060        1.7565017725        0.3567964572
 C          1.5764489485        0.8332000559        0.0112254325
 C          0.2597526912        1.3141994441       -0.4576500481
 O          0.0120403750        2.5169585920       -0.5201267872
 H         -4.4598244176       -1.4573801965        1.7414218716
 H         -5.3510253329       -1.0007084067        0.2813044314
 H         -5.3154438581        0.0772564102        1.6813104667
 H         -1.8760212622       -0.2649912249        1.9347376242
 H         -3.1061898567        0.8560311642        2.5076924013
 H         -1.9494194734        1.3673080830        1.2729364994
 H         -4.0025342450       -0.2099924537       -1.4283115705
 H         -2.0775537655        1.8945454173       -1.1538180057
 H         -2.0884684989        0.6903802308       -2.4339269533
 H         -2.1815451576       -1.6274557054       -1.3298015950
 H          3.2892270664       -2.0129017465        0.6474527025
 H          5.0367536895       -0.3562157909        1.2562035191
 H          4.5503485831        2.0589472340        1.0653664961
 H          2.3227681035        2.8069545769        0.2677433714
  32
 Etot=  -51.4236655314 g norm=  0.00024842
 C         -5.0414845081       -0.3857572984       -1.4927186719
 C         -4.1853446681        0.1518924193       -0.3850000988
 C         -4.9329423496        0.4741828882        0.8731164626
 C         -2.8799932913        0.3400566170       -0.5587958228
 C         -1.9129418652        0.9215611295        0.4363827714
 C         -0.5173804359        0.3787643295        0.2695840279
 C         -0.2694421943       -0.9567880217        0.2478597066
 O         -1.2125872770       -1.8964794453        0.3760907922
 C          1.0972108507       -1.5219802040        0.0885044837
 O          1.2826394666       -2.7299087989        0.0927993978
 C          2.1867701369       -0.5485334274       -0.0715188187
 C          3.4897539157       -1.0053587777       -0.2493074404
 C          4.5334617116       -0.1075201897       -0.4032800691
 C          4.2828605447        1.2552622686       -0.3786949758
 C          2.9887926277        1.7198929410       -0.2016583195
 C          1.9329379843        0.8289132611       -0.0483944692
 C          0.5626200950        1.3532289496        0.1324417321
 O          0.3461273606        2.5628482411        0.1638101971
 H         -5.5050630436       -1.3241084440       -1.1912540744
 H         -4.4615408511       -0.5569309935       -2.3954338930
 H         -5.8407560654        0.3186277508       -1.7183204699
 H         -5.4381229017        1.4328708107        0.7595300373
 H         -4.2819054303        0.5418459406        1.7394533064
 H         -5.6934959309       -0.2803293643        1.0620986257
 H         -2.4423870710        0.1119531729       -1.5230867028
 H         -2.2515194601        0.7475312822        1.4612766509
 H         -1.8529107966        2.0063580401        0.2995725703
 H         -2.1052552357       -1.5029610034        0.4115312902
 H          3.6595089393       -2.0714876251       -0.2641434804
 H          5.5385682989       -0.4723597343       -0.5425646751
 H          5.0921534779        1.9580339056       -0.4974783022
 H          2.7715010792        2.7774743833       -0.1785936545
  32
 Etot=  -51.4239465137 g norm=  0.00023029
 C         -4.3546498061        0.8919910739        2.0156716286
 C         -3.5354657484        0.9656445139        0.7627452182
 C         -3.4698552031        2.3203209230        0.1181170462
 C         -2.9402783765       -0.1136022599        0.2670084274
 C         -2.0957015513       -0.1574904015       -0.9807597650
 C         -0.6481317117       -0.3482492750       -0.5993568930
 C         -0.1382927075       -1.5657236081       -0.2786320084
 O         -0.8359098460       -2.7085379225       -0.3006578101
 C          1.2769247255       -1.7676774887        0.1297427268
 O          1.7026763266       -2.8840997043        0.3884315481
 C          2.1132454548       -0.5613828345        0.1934107300
 C          3.4478842240       -0.6747398073        0.5729477687
 C          4.2551273122        0.4488204268        0.6417468437
 C          3.7338495997        1.6951640662        0.3321666794
 C          2.4065096788        1.8176742402       -0.0481081515
 C          1.5864622454        0.6974532908       -0.1218360355
 C          0.1759800974        0.8576238151       -0.5337248986
 O         -0.2770448003        1.9646434379       -0.8146786639
 H         -5.3654528931        1.2459971108        1.8195026137
 H         -3.9203365742        1.5345723399        2.7805440097
 H         -4.4051580205       -0.1230641540        2.4005923801
 H         -3.8423726218        3.0815056384        0.7976986060
 H         -4.0793449721        2.3425713308       -0.7845625641
 H         -2.4482307241        2.5738053617       -0.1592797133
 H         -3.0198758359       -1.0497049191        0.8048842990
 H         -2.1807378616        0.7812696707       -1.5252685572
 H         -2.4340725146       -0.9646152791       -1.6355520500
 H         -1.7489244281       -2.5712029427       -0.6063403586
 H          3.8293116650       -1.6561507458        0.8113445682
 H          5.2876627867        0.3504219712        0.9367007886
 H          4.3588506733        2.5724143077        0.3851865348
 H          1.9809206146        2.7791377070       -0.2941556679
  32
 Etot=  -51.4237496303 g norm=  0.00028987
 C         -5.0889942203        0.0926920495        1.6202487002
 C         -4.1933329474        0.4100204524        0.4633490183
 C         -4.8763611728        0.6034070125       -0.8603234311
 C         -2.8758585020        0.5217182235        0.6106731345
 C         -1.9182195150        0.8747347008       -0.4952654120
 C         -0.5203898503        0.3740270447       -0.2453924772
 C         -0.2757983781       -0.9249147628        0.0687116942
 O         -1.2275504110       -1.8577709647        0.1847094800
 C          1.0927169290       -1.4549195565        0.3073872716
 O          1.2729115045       -2.6330831491        0.5779272487
 C          2.1916657414       -0.4852255386        0.1956587108
 C          3.4998844266       -0.9090078742        0.4123266716
 C          4.5528086385       -0.0143649159        0.3133513045
 C          4.3058755998        1.3120487355       -0.0034138348
 C          3.0065121721        1.7435803523       -0.2207139354
 C          1.9414986090        0.8554258063       -0.1242260195
 C          0.5661923523        1.3440233216       -0.3605581477
 O          0.3515139203        2.5210154583       -0.6424399596
 H         -5.8025225376        0.9017367429        1.7703673454
 H         -4.5204518637       -0.0447903125        2.5361142038
 H         -5.6557462336       -0.8149401639        1.4169233677
 H         -5.9517558342        0.4965871561       -0.7544724070
 H         -4.5310543335       -0.1264444559       -1.5916582680
 H         -4.6630978686        1.5947422416       -1.2567377843
 H         -2.4332951181        0.4128848165        1.5924734450
 H         -1.8571116954        1.9631561554       -0.6011626249
 H         -2.2809702239        0.4817005739       -1.4497617992
 H         -2.1180333304       -1.4657906889        0.0992685038
 H          3.6659248838       -1.9471451438        0.6580999215
 H          5.5623205700       -0.3530315851        0.4835087924
 H          5.1225171422        2.0120975509       -0.0813304000
 H          2.7919670992        2.7724934779       -0.4683494236
  32
 Etot=  -51.4237119763 g norm=  0.00032243
 C         -5.0570674000       -0.0946634745       -1.5464536244
 C         -4.2000256363        0.2667740549       -0.3699849900
 C         -4.9564264856        0.4607982262        0.9088646966
 C         -2.8856742452        0.4210208544       -0.5013354784
 C         -1.9176738731        0.8333162051        0.5751131960
 C         -0.5214893674        0.3290134388        0.3193371582
 C         -0.2672626316       -0.9875545031        0.1013048316
 O         -1.2029420912       -1.9429419022        0.0995674190
 C          1.1003680693       -1.5147135670       -0.1526893200
 O          1.2899678507       -2.7080064846       -0.3363544896
 C          2.1851933771       -0.5232869210       -0.1686030715
 C          3.4902188607       -0.9432549841       -0.4109722943
 C          4.5293971124       -0.0275076070       -0.4329711535
 C          4.2719681123        1.3162621695       -0.2122101213
 C          2.9758725146        1.7439711362        0.0307209172
 C          1.9246020422        0.8347623361        0.0546602177
 C          0.5523586257        1.3199699729        0.3136560989
 O          0.3296530592        2.5117827341        0.5156972636
 H         -5.5593773543       -1.0448465980       -1.3702086340
 H         -4.4688933198       -0.1739599537       -2.4566485116
 H         -5.8262584904        0.6621993450       -1.6916900961
 H         -5.7318450161       -0.2962410850        1.0051641578
 H         -5.4440309528        1.4350234946        0.8970836347
 H         -4.3138010569        0.4209664869        1.7829685721
 H         -2.4398306271        0.2993270765       -1.4809234580
 H         -2.2547019889        0.4906050889        1.5573440338
 H         -1.8607375554        1.9259622548        0.6195318870
 H         -2.0981680234       -1.5704182276        0.2061770050
 H          3.6649030379       -1.9952601836       -0.5794542464
 H          5.5364735923       -0.3632803718       -0.6224517437
 H          5.0778763453        2.0327097189       -0.2284220718
 H          2.7533261898        2.7859636034        0.2059477507
  32
 Etot=  -51.4237064222 g norm=  0.00025590
 C         -5.0639112745       -0.3545898158        1.4178740148
 C         -4.1795816567        0.1493128664        0.3163402587
 C         -4.8680067719        0.2888514186       -1.0074319641
 C         -2.9061631623        0.4578676533        0.5507273565
 C         -1.9126010598        1.0235495966       -0.4253896464
 C         -0.5290516200        0.4526723559       -0.2437596136
 C         -0.3138579439       -0.8868823924       -0.1722831738
 O         -1.2824241231       -1.8056702577       -0.2472201659
 C          1.0412192612       -1.4798829992       -0.0159029815
 O          1.1959629717       -2.6913844519        0.0278966654
 C          2.1584149325       -0.5294295685        0.0763706431
 C          3.4543968473       -1.0127139169        0.2344902656
 C          4.5235184831       -0.1367401641        0.3272028519
 C          4.3052268217        1.2303248075        0.2623330312
 C          3.0184143056        1.7211160134        0.1042125477
 C          1.9373573725        0.8522251009        0.0102325073
 C          0.5759232746        1.4043509380       -0.1560826725
 O          0.3873169666        2.6174235966       -0.2168390542
 H         -5.9300893561        0.2961993782        1.5247779257
 H         -4.5356164227       -0.3914953966        2.3665744937
 H         -5.4299046872       -1.3527849534        1.1819224488
 H         -4.1717384336        0.3684561445       -1.8366195916
 H         -5.4863728038        1.1858190470       -1.0016989722
 H         -5.5230911117       -0.5625076535       -1.1794242481
 H         -2.5196052191        0.3496798685        1.5570352000
 H         -1.8329747397        2.1058977128       -0.2806255883
 H         -2.2357841499        0.8612983717       -1.4566232026
 H         -2.1658121571       -1.3854503377       -0.2601469716
 H          3.5983028213       -2.0817406261        0.2815670648
 H          5.5232729966       -0.5215219564        0.4506416208
 H          5.1344909184        1.9159508028        0.3347068458
 H          2.8261233766        2.7823305908        0.0509793453
  32
 Etot=  -51.4237156816 g norm=  0.00041761
 C         -4.8348981817        0.0888956112        1.9093212104
 C         -4.0225727537        0.0857744759        0.6482196179
 C         -4.7695995184       -0.3949321480       -0.5583625373
 C         -2.7600064039        0.5065196194        0.6497363058
 C         -1.8357086124        0.6204054358       -0.5309369127
 C         -0.4113714445        0.2622655382       -0.1910383274
 C         -0.0997792006       -0.8964987427        0.4460144503
 O         -1.0016912588       -1.8076545637        0.8260243021
 C          1.2963906152       -1.2826453782        0.7835917712
 O          1.5351099259       -2.3280674160        1.3697514651
 C          2.3472555618       -0.3419338531        0.3702427435
 C          3.6793619574       -0.6470093997        0.6355942483
 C          4.6876229173        0.2242072703        0.2571919619
 C          4.3715753821        1.4093394193       -0.3878523542
 C          3.0479038978        1.7225199111       -0.6553758937
 C          2.0273693993        0.8553075527       -0.2827997523
 C          0.6250667389        1.2142175237       -0.5836382170
 O          0.3485099173        2.2719713951       -1.1455571386
 H         -5.1778001129       -0.9181069399        2.1420329968
 H         -5.7167198782        0.7143241866        1.7805021697
 H         -4.2604670672        0.4659140904        2.7509615386
 H         -5.3184890866       -1.3039558728       -0.3198387810
 H         -4.1196903736       -0.5893986968       -1.4056630950
 H         -5.4964537636        0.3590730022       -0.8581494839
 H         -2.3310466260        0.8632356447        1.5784700765
 H         -1.8275434759        1.6549968023       -0.8894645590
 H         -2.1750271873       -0.0045925886       -1.3607016821
 H         -1.9128165770       -1.4897797774        0.6687459596
 H          3.8995138284       -1.5755411859        1.1405530611
 H          5.7163258361       -0.0225949538        0.4661560970
 H          5.1531300264        2.0910284745       -0.6835745184
 H          2.7796716433        2.6406821651       -1.1564011255
  32
 Etot=  -51.4235808715 g norm=  0.00030066
 C         -5.0779610405       -0.4714291642        1.2919505890
 C         -4.2068269918        0.1990546011        0.2717844338
 C         -4.9535393759        0.8014875372       -0.8796668181
 C         -2.8855021078        0.2346466716        0.4119727211
 C         -1.9081370851        0.8945539884       -0.5272389085
 C         -0.5105187487        0.3540203689       -0.3783336972
 C         -0.2435142009       -0.9728839272       -0.4948707571
 O         -1.1691468804       -1.9037258457       -0.7506322110
 C          1.1263822825       -1.5363963310       -0.3600963209
 O          1.3285031206       -2.7350620098       -0.4864339208
 C          2.1982002881       -0.5728840190       -0.0719752322
 C          3.5042668909       -1.0300422995        0.0802323475
 C          4.5314452435       -0.1415208457        0.3532740905
 C          4.2608792317        1.2121569582        0.4755035331
 C          2.9635967788        1.6771106585        0.3245978133
 C          1.9242964244        0.7953064394        0.0516061081
 C          0.5506540790        1.3197720812       -0.1024999887
 O          0.3168923090        2.5223151316       -0.0020340967
 H         -4.4851173070       -0.9599880825        2.0606191612
 H         -5.7155212917       -1.2125746541        0.8124929917
 H         -5.7267637401        0.2622288687        1.7686258056
 H         -5.7778622575        1.4041930824       -0.5033724646
 H         -5.3813291578        0.0152814336       -1.5011885194
 H         -4.3212633458        1.4325729981       -1.4953424912
 H         -2.4397547716       -0.1994757343        1.2983646550
 H         -1.8599914118        1.9685431794       -0.3185649962
 H         -2.2317671408        0.7789184735       -1.5653755040
 H         -2.0645317625       -1.5193315316       -0.7845469564
 H          3.6896197139       -2.0889859623       -0.0197527412
 H          5.5393830041       -0.5063632492        0.4704926440
 H          5.0572459243        1.9075906771        0.6880609668
 H          2.7309089873        2.7276799236        0.4151085194
  32
 Etot=  -51.4239679410 g norm=  0.00048486
 C         -4.5834075535        0.1418666086       -1.7005336214
 C         -3.7182049781        0.5695352703       -0.5540679198
 C         -3.7357201338        2.0398018499       -0.2485003345
 C         -3.0119725252       -0.3149877177        0.1411328640
 C         -2.1063872633        0.0005848272        1.3039362319
 C         -0.6746749765       -0.2322851230        0.8892205333
 C         -0.1097459823       -1.4674844267        0.8931225042
 O         -0.7291776084       -2.5842197686        1.2961705783
 C          1.2880812051       -1.7176099368        0.4522039888
 O          1.7715711022       -2.8392243463        0.5040392823
 C          2.0346067677       -0.5501007746       -0.0358122378
 C          3.3424244527       -0.7144032350       -0.4836058435
 C          4.0664816467        0.3714930900       -0.9476846319
 C          3.4879405787        1.6306629300       -0.9681154367
 C          2.1863774003        1.8041186147       -0.5236472817
 C          1.4496795690        0.7223009177       -0.0550288202
 C          0.0646113633        0.9365899920        0.4148246953
 O         -0.4375804988        2.0577059341        0.4074842278
 H         -4.5470130784       -0.9343600016       -1.8477445329
 H         -4.2534313690        0.6316971401       -2.6159326153
 H         -5.6152308167        0.4387615778       -1.5182286968
 H         -4.2315025439        2.5866704184       -1.0453071850
 H         -2.7238754112        2.4269681600       -0.1400586882
 H         -4.2714329062        2.2306028709        0.6806573017
 H         -3.0363095653       -1.3561467637       -0.1541475927
 H         -2.3695314953       -0.6174026976        2.1660673775
 H         -2.2110238236        1.0458805922        1.5890137782
 H         -1.6304896328       -2.4072783315        1.6161109694
 H          3.7703957056       -1.7053469255       -0.4574857745
 H          5.0790567601        0.2334117700       -1.2918708686
 H          4.0479858028        2.4788535338       -1.3286290479
 H          1.7179171753        2.7770084072       -0.5298470232
  32
 Etot=  -51.4237079218 g norm=  0.00026232
 C         -4.8975114248        0.1402383515       -1.7701144648
 C         -4.0609413496        0.1344632149       -0.5249579763
 C         -4.7911615097       -0.3232851021        0.7006847985
 C         -2.7924030321        0.5354702065       -0.5549076085
 C         -1.8416262019        0.6445721951        0.6052331921
 C         -0.4334758700        0.2554342374        0.2334302217
 C         -0.1609801225       -0.9249608233       -0.3813654938
 O         -1.0898565741       -1.8299962919       -0.7076689535
 C          1.2175526973       -1.3451661728       -0.7482278783
 O          1.4243618622       -2.4221775766       -1.2875577653
 C          2.2923164511       -0.3970644022       -0.4223459280
 C          3.6072771586       -0.7189407931       -0.7467818339
 C          4.6378310386        0.1583961894       -0.4515890942
 C          4.3616107031        1.3652645530        0.1711989464
 C          3.0553355596        1.6947161549        0.4981644640
 C          2.0125326016        0.8229156833        0.2066665183
 C          0.6289292697        1.2020699108        0.5642511910
 O          0.3880119449        2.2730472789        1.1173368701
 H         -5.2655984947       -0.8619357561       -1.9844938323
 H         -4.3317464250        0.4958202783       -2.6268952975
 H         -5.7634403717        0.7855331118       -1.6316511303
 H         -5.4889249550        0.4514185349        1.0168866453
 H         -4.1259354442       -0.5340680382        1.5320013739
 H         -5.3702168707       -1.2173348007        0.4780575340
 H         -2.3760238728        0.8758930253       -1.4951812193
 H         -2.1740152738        0.0347117402        1.4488295869
 H         -1.8056399664        1.6825763708        0.9517493365
 H         -1.9897154403       -1.4909633251       -0.5317398088
 H          3.7962609386       -1.6648571527       -1.2317817889
 H          5.6527696403       -0.1006702836       -0.7077156952
 H          5.1606880685        2.0514250888        0.4028694158
 H          2.8180546520        2.6297721103        0.9833809650
  32
 Etot=  -51.4236981948 g norm=  0.00028428
 C         -5.0319862380       -0.4243199916        1.4883428247
 C         -4.1643656442        0.0980097634        0.3817559421
 C         -4.8783970157        0.2720801646       -0.9238193623
 C         -2.8842059791        0.3894801210        0.5987769675
 C         -1.9007629217        0.9647655939       -0.3826236541
 C         -0.5117047148        0.4068606625       -0.2045584515
 C         -0.2835310992       -0.9306851805       -0.1360472560
 O         -1.2432067504       -1.8581663345       -0.2160256840
 C          1.0766593049       -1.5109351782        0.0247322053
 O          1.2423367060       -2.7208227336        0.0738354769
 C          2.1846399325       -0.5497295558        0.1166272654
 C          3.4851983769       -1.0204341259        0.2752550041
 C          4.5458942938       -0.1342618960        0.3679131320
 C          4.3147414230        1.2306332185        0.3020165539
 C          3.0233105529        1.7090114798        0.1433609430
 C          1.9505181823        0.8298287903        0.0499110078
 C          0.5839686520        1.3689842788       -0.1157795932
 O          0.3835171281        2.5803013168       -0.1761149248
 H         -4.4794587522       -0.5093858049        2.4197891516
 H         -5.4296464286       -1.4034665300        1.2266226208
 H         -5.8779353652        0.2431433213        1.6441609156
 H         -5.5560331934        1.1220136476       -0.8547103282
 H         -5.4779535071       -0.6093432126       -1.1417710734
 H         -4.2010711162        0.4501530148       -1.7530545887
 H         -2.4816115595        0.2562079617        1.5957449702
 H         -1.8304930232        2.0479807204       -0.2396764220
 H         -2.2258016253        0.7973588607       -1.4124709017
 H         -2.1303679686       -1.4466237075       -0.2352933075
 H          3.6390093372       -2.0879667957        0.3245304571
 H          5.5491642703       -0.5094848493        0.4921819528
 H          5.1373897916        1.9242999159        0.3739800015
 H          2.8210297061        2.7683281517        0.0891842421
  32
 Etot=  -51.4237264956 g norm=  0.00042704
 C         -5.0025598750       -0.6780755012        1.3602519955
 C         -4.1299542361       -0.1061520204        0.2826873712
 C         -4.8213931035        0.0717035303       -1.0348757512
 C         -2.8652970075        0.2250405217        0.5325452643
 C         -1.8866567702        0.8585444163       -0.4167140434
 C         -0.4819353628        0.3417052721       -0.2370044048
 C         -0.2082337295       -0.9884393316       -0.1979567169
 O         -1.1326667276       -1.9483108787       -0.3075305737
 C          1.1703786317       -1.5251576187       -0.0415117415
 O          1.3774281758       -2.7294684200       -0.0248634480
 C          2.2439940005       -0.5295460612        0.0848193824
 C          3.5586408049       -0.9593431675        0.2431460426
 C          4.5874436625       -0.0399290829        0.3661691653
 C          4.3097977880        1.3174266296        0.3314533471
 C          3.0039301722        1.7550998010        0.1734780630
 C          1.9629417657        0.8422458551        0.0493007756
 C          0.5799685897        1.3380838101       -0.1161725479
 O          0.3390978025        2.5429774396       -0.1500910615
 H         -5.3578129366       -1.6669144385        1.0740198291
 H         -5.8760822815       -0.0445220244        1.5055706437
 H         -4.4687994875       -0.7577247521        2.3032400925
 H         -5.4843985600        0.9346737066       -0.9822405721
 H         -5.4327706917       -0.8005396528       -1.2572929760
 H         -4.1280082375        0.2325359218       -1.8545129988
 H         -2.4774615180        0.0845751128        1.5343924801
 H         -1.8536345399        1.9389454245       -0.2412975781
 H         -2.1931312570        0.7128978603       -1.4555254642
 H         -2.0345593292       -1.5711557931       -0.3289477708
 H          3.7488399114       -2.0218307966        0.2676780411
 H          5.6022140422       -0.3834449878        0.4887075958
 H          5.1075951449        2.0368405276        0.4261598785
 H          2.7657268139        2.8078823419        0.1432693269
  32
 Etot=  -51.4236646659 g norm=  0.00021786
 C         -5.0118105507       -0.1576099962       -1.4139917656
 C         -4.1274924715        0.0319384446       -0.2169521122
 C         -4.7964829767       -0.2750989642        1.0883452732
 C         -2.8745746225        0.4582307078       -0.3565865351
 C         -1.8811210144        0.7533603423        0.7325663779
 C         -0.4864815480        0.2966447060        0.3854616926
 C         -0.2334196384       -0.9683999612       -0.0402375451
 O         -1.1691586398       -1.9110728146       -0.1936533967
 C          1.1343130760       -1.4503590026       -0.3720115316
 O          1.3219866406       -2.5982228547       -0.7471296145
 C          2.2218680107       -0.4742745457       -0.2168834950
 C          3.5286724154       -0.8567714058       -0.5068552071
 C          4.5710417239        0.0447096792       -0.3668926965
 C          4.3147638050        1.3368388901        0.0637604139
 C          3.0165845738        1.7274202571        0.3537066436
 C          1.9621834249        0.8317507777        0.2176508590
 C          0.5877800517        1.2761328075        0.5331369540
 O          0.3639494311        2.4261002946        0.9051403961
 H         -4.4904241863        0.0868561393       -2.3353958842
 H         -5.8906148695        0.4799469380       -1.3309014588
 H         -5.3581292925       -1.1885372177       -1.4700012244
 H         -5.5521271202        0.4818476485        1.2948914282
 H         -4.1034581187       -0.2939725695        1.9232559239
 H         -5.3031294450       -1.2368174693        1.0298105362
 H         -2.5060459420        0.6734627208       -1.3524183716
 H         -2.1833159986        0.3002284684        1.6795103228
 H         -1.8301674242        1.8351126094        0.8945766279
 H         -2.0653026975       -1.5516782718       -0.0442446781
 H          3.7018341212       -1.8686277946       -0.8412721480
 H          5.5797481622       -0.2622212220       -0.5929680465
 H          5.1233654086        2.0417059551        0.1752169224
 H          2.7948657695        2.7295873152        0.6891317594
  32
 Etot=  -51.4237244756 g norm=  0.00022845
 C         -5.0835837970       -0.7295277680        1.0724618730
 C         -4.1897050208        0.0427285157        0.1483110599
 C         -4.8792044669        0.5743879361       -1.0712947323
 C         -2.9068194456        0.2380997359        0.4436052714
 C         -1.9067356884        1.0354499751       -0.3472227460
 C         -0.5161828503        0.4577656444       -0.2812039898
 C         -0.2738674701       -0.8525890324       -0.5458101057
 O         -1.2201140708       -1.7379263761       -0.8761926928
 C          1.0898836944       -1.4451693515       -0.5082330515
 O          1.2683391889       -2.6280913763       -0.7579705181
 C          2.1859595636       -0.5293178465       -0.1619678164
 C          3.4900095387       -1.0140303906       -0.1112606974
 C          4.5399344321       -0.1707520035        0.2136757066
 C          4.2939839823        1.1646144179        0.4910691140
 C          2.9986740993        1.6565369003        0.4434034148
 C          1.9369101143        0.8204428068        0.1179322063
 C          0.5661775705        1.3726695726        0.0741558475
 O          0.3517397038        2.5564016159        0.3263658680
 H         -5.4936363567       -1.6002417138        0.5627051709
 H         -5.9206182322       -0.1070305843        1.3840913886
 H         -4.5479799272       -1.0622395078        1.9572817636
 H         -5.5639349152       -0.1712648772       -1.4693945267
 H         -4.1837073657        0.8651044123       -1.8523931236
 H         -5.4658016750        1.4520559209       -0.8022148580
 H         -2.5182251466       -0.1602300586        1.3732169302
 H         -1.8494191636        2.0527196056        0.0540208912
 H         -2.2107701829        1.1210821530       -1.3936839880
 H         -2.1118082600       -1.3425346134       -0.8143550992
 H          3.6552471332       -2.0580228145       -0.3314492836
 H          5.5462971306       -0.5562189944        0.2489715157
 H          5.1081125117        1.8250561439        0.7435197516
 H          2.7851106771        2.6933940792        0.6562507051
  32
 Etot=  -51.4236363940 g norm=  0.00024762
 C         -5.0476482929       -0.4447657928        1.3716674768
 C         -4.1945561867        0.1946289663        0.3164017483
 C         -4.9572757226        0.6946675349       -0.8722547370
 C         -2.8794645870        0.3090802450        0.4763520789
 C         -1.9104480108        0.9668892707       -0.4698599384
 C         -0.5168367515        0.4094580540       -0.3422606537
 C         -0.2687765971       -0.9205895403       -0.4635079389
 O         -1.2095642727       -1.8393281927       -0.7069755098
 C          1.0960613976       -1.5009662431       -0.3500664154
 O          1.2837368299       -2.6998273115       -0.4948982048
 C          2.1812720988       -0.5534234840       -0.0590190538
 C          3.4810168101       -1.0293075559        0.0905264237
 C          4.5204634067       -0.1561800984        0.3664617970
 C          4.2688576921        1.2008657181        0.4931376941
 C          2.9782293510        1.6844632495        0.3446086786
 C          1.9264717613        0.8178986512        0.0701521639
 C          0.5596616573        1.3613360794       -0.0783588605
 O          0.3432181477        2.5672527777        0.0199972257
 H         -4.4533767741       -0.7589994053        2.2254104530
 H         -5.5638821830       -1.3135182291        0.9655449436
 H         -5.8061047494        0.2581794433        1.7130696438
 H         -4.3115579858        0.9420021307       -1.7087226972
 H         -5.5079059183        1.5934002144       -0.5968403551
 H         -5.6824747876       -0.0506729431       -1.1928364150
 H         -2.4315576645       -0.0504148393        1.3948921433
 H         -1.8494430710        2.0377111537       -0.2488296085
 H         -2.2475941797        0.8710600721       -1.5056787859
 H         -2.1014942178       -1.4446180522       -0.7190633130
 H          3.6512047965       -2.0902807441       -0.0140016915
 H          5.5234798534       -0.5351710873        0.4812270291
 H          5.0752791123        1.8843354984        0.7067610217
 H          2.7601786240        2.7380732097        0.4380594812
  32
 Etot=  -51.4237027696 g norm=  0.00057801
 C         -5.0641106571        0.0221170444        1.6996322584
 C         -4.1912769567        0.3535007429        0.5277858359
 C         -4.9164223259        0.5644082490       -0.7685059568
 C         -2.8731388699        0.4772999873        0.6607180425
 C         -1.9149150189        0.8625461726       -0.4329756516
 C         -0.5168989243        0.3560748607       -0.1937909177
 C         -0.2680672673       -0.9495105669        0.0878174206
 O         -1.2126585852       -1.8925702110        0.1731812524
 C          1.1019036839       -1.4776128025        0.3260549338
 O          1.2849866486       -2.6594954515        0.5777351780
 C          2.1976910230       -0.5021499692        0.2386558582
 C          3.5067832955       -0.9252400865        0.4517180688
 C          4.5566770004       -0.0250063108        0.3730279215
 C          4.3059512365        1.3062015029        0.0801123809
 C          3.0056136569        1.7372333952       -0.1322821128
 C          1.9435676085        0.8435606594       -0.0554652836
 C          0.5668610723        1.3322136690       -0.2829639242
 O          0.3487330822        2.5147308431       -0.5378129272
 H         -5.5917237575       -0.9143835925        1.5229555462
 H         -5.8120214312        0.8017620206        1.8361378751
 H         -4.4837801287       -0.0697579936        2.6138613959
 H         -5.0588542710        1.6306443617       -0.9424711843
 H         -5.8946009867        0.0922562305       -0.7382345269
 H         -4.3623762383        0.1652168704       -1.6148180914
 H         -2.4251774514        0.3549390047        1.6389564916
 H         -1.8540011333        1.9536420067       -0.5040174603
 H         -2.2724012438        0.5031422784       -1.4024860388
 H         -2.1070109218       -1.5120869550        0.0816441973
 H          3.6760896541       -1.9672404714        0.6782061373
 H          5.5669362960       -0.3631163823        0.5399811931
 H          5.1203928934        2.0102737732        0.0168063240
 H          2.7878667819        2.7698499019       -0.3609625352
  32
 Etot=  -51.4250065620 g norm=  0.00033362
 C         -4.7247159010       -0.3381157880        1.2238471335
 C         -3.4821325090        0.2211263162        0.6018270623
 C         -2.5323785905        0.8745613960        1.5599157323
 C         -3.2498592263        0.1154139925       -0.7040238305
 C         -2.0421824626        0.6600412213       -1.4228619700
 C         -0.7196723399        0.2097666770       -0.8514314129
 C         -0.4684314952       -1.0913969618       -0.5531152089
 O         -1.3472163999       -2.0849649361       -0.7217057041
 C          0.8324501689       -1.5575949015       -0.0045110435
 O          1.0141141611       -2.7355692974        0.2669134325
 C          1.8667131049       -0.5298751476        0.1788125290
 C          3.1184485118       -0.8989391188        0.6630503851
 C          4.1099276483        0.0520889113        0.8415627726
 C          3.8559921618        1.3806969640        0.5404400766
 C          2.6111987627        1.7584533349        0.0609330647
 C          1.6097309981        0.8127457352       -0.1260507618
 C          0.2915896061        1.2436054186       -0.6378848064
 O          0.0595360030        2.4289529991       -0.8680721861
 H         -5.3110474075        0.4642497399        1.6693545131
 H         -4.4610198339       -1.0348310211        2.0181204022
 H         -5.3400976704       -0.8530792133        0.4914858977
 H         -3.0827931591        1.3489653255        2.3691648931
 H         -1.9170837085        1.6243837734        1.0686831095
 H         -1.8700967172        0.1272495103        1.9995931859
 H         -3.9987960684       -0.3492699004       -1.3314204645
 H         -2.0451084976        1.7544777007       -1.3917463359
 H         -2.0871913813        0.3716266860       -2.4762793749
 H         -2.2135844225       -1.7454282655       -1.0182215944
 H          3.2908301834       -1.9398399965        0.8921408899
 H          5.0769589044       -0.2449656758        1.2149190745
 H          4.6247426712        2.1245030899        0.6779001699
 H          2.3922366172        2.7883970813       -0.1781763767
  32
 Etot=  -51.4236789251 g norm=  0.00035617
 C         -5.1045554751       -0.2352824844        1.3848963050
 C         -4.2013409606        0.3427722121        0.3403260541
 C         -4.8704192814        1.1063678712       -0.7650838512
 C         -2.8819718395        0.1900368592        0.3892927866
 C         -1.9334728384        0.7732104065       -0.6262761390
 C         -0.5240192017        0.2737029244       -0.4639797461
 C         -0.2221839954       -1.0479253866       -0.5510621324
 O         -1.1205655670       -2.0092438238       -0.7921339519
 C          1.1608778406       -1.5727327624       -0.3962333023
 O          1.3954393831       -2.7675953437       -0.5007171592
 C          2.2041737915       -0.5771210215       -0.1130423227
 C          3.5197967804       -0.9979278980        0.0605730399
 C          4.5205535093       -0.0790337522        0.3306771340
 C          4.2137336841        1.2688900717        0.4289399593
 C          2.9068876076        1.6977732115        0.2557509616
 C          1.8938215071        0.7853153895       -0.0152368709
 C          0.5097764576        1.2717724579       -0.1980048167
 O          0.2454886259        2.4701568828       -0.1292223765
 H         -5.8265035311       -0.9081000241        0.9240983465
 H         -5.6607467938        0.5610758231        1.8774652053
 H         -4.5414795381       -0.7834549371        2.1355704023
 H         -5.9418279642        1.1644948543       -0.5995553767
 H         -4.6961796582        0.6287640635       -1.7285725087
 H         -4.4702161145        2.1174211862       -0.8242870425
 H         -2.4282320307       -0.3399796443        1.2159885813
 H         -1.9070714552        1.8631680672       -0.5231992716
 H         -2.2908885716        0.5605135224       -1.6395877891
 H         -2.0250203737       -1.6540809520       -0.8554586328
 H          3.7331713897       -2.0531281431       -0.0212026769
 H          5.5362387143       -0.4157027805        0.4641684938
 H          4.9893360882        1.9876375480        0.6405492697
 H          2.6461887786        2.7432145190        0.3269386585
  32
 Etot=  -51.4235899995 g norm=  0.00068920
 C         -5.0988972367       -0.5654022105        1.2107907018
 C         -4.2135298179        0.1742760493        0.2535564862
 C         -4.9370357813        0.8613428700       -0.8661005518
 C         -2.8933510383        0.1934793825        0.4074011389
 C         -1.9130665277        0.9165860660       -0.4806765368
 C         -0.5150991119        0.3688480581       -0.3669444732
 C         -0.2472931819       -0.9479382077       -0.5668095470
 O         -1.1724466559       -1.8617184430       -0.8797996856
 C          1.1229740135       -1.5175263145       -0.4696028551
 O          1.3262430253       -2.7053341278       -0.6734139081
 C          2.1943556159       -0.5737629897       -0.1211721288
 C          3.5004589230       -1.0394014679        0.0026428190
 C          4.5273254485       -0.1695808065        0.3311251691
 C          4.2564709537        1.1739130919        0.5369761034
 C          2.9591803212        1.6471822568        0.4150012103
 C          1.9200222131        0.7839192271        0.0874611743
 C          0.5460835216        1.3162496901       -0.0330667683
 O          0.3116032312        2.5099631592        0.1428122382
 H         -5.7337019792        0.1366532831        1.7500165521
 H         -4.5175640248       -1.1307950875        1.9341031764
 H         -5.7500491840       -1.2483974987        0.6678278188
 H         -5.8625159569        1.2948331671       -0.4941736122
 H         -5.2000877259        0.1421636878       -1.6416386025
 H         -4.3405281309        1.6514629426       -1.3109671128
 H         -2.4539709003       -0.3031481642        1.2634485169
 H         -1.8666090774        1.9740683018       -0.1991883047
 H         -2.2357530274        0.8718260658       -1.5246241219
 H         -2.0683336088       -1.4768889912       -0.8867893104
 H          3.6855464987       -2.0901100707       -0.1631183024
 H          5.5352634769       -0.5408371390        0.4259508880
 H          5.0528375032        1.8548899193        0.7921519320
 H          2.7263086963        2.6900869121        0.5703940071
  32
 Etot=  -51.4236806958 g norm=  0.00023365
 C         -4.9923481701       -0.7208716297        1.3625623481
 C         -4.1373481705       -0.0590085766        0.3228686482
 C         -4.8597687504        0.2590506425       -0.9508124096
 C         -2.8605817565        0.2241932359        0.5692203314
 C         -1.8924558324        0.9307704141       -0.3393717136
 C         -0.4906137635        0.3883628655       -0.2250064921
 C         -0.2287856107       -0.9393269504       -0.3435541346
 O         -1.1640503193       -1.8702013536       -0.5600247563
 C          1.1455362204       -1.5023169849       -0.2610212627
 O          1.3436681234       -2.7003942791       -0.3981344513
 C          2.2266993417       -0.5384267788       -0.0113037903
 C          3.5371774472       -0.9959823654        0.0958309433
 C          4.5733529198       -0.1077398953        0.3328558438
 C          4.3072667091        1.2459995930        0.4641207490
 C          3.0056951521        1.7112918621        0.3583003755
 C          1.9573528292        0.8297812476        0.1211194847
 C          0.5790142104        1.3543467923        0.0147299070
 O          0.3479945689        2.5564206328        0.1270600735
 H         -5.8507890075       -0.0917930594        1.5923941453
 H         -4.4363361496       -0.9003333869        2.2786658833
 H         -5.3719720710       -1.6714489419        0.9908498317
 H         -4.1865843342        0.5195462852       -1.7615831455
 H         -5.5293029649        1.1024944574       -0.7857458667
 H         -5.4685693396       -0.5896341149       -1.2566217261
 H         -2.4507622412       -0.0215133779        1.5415656725
 H         -1.8474608828        1.9915924640       -0.0719722747
 H         -2.2162105201        0.8748803485       -1.3817016861
 H         -2.0612567735       -1.4840762450       -0.5287426998
 H          3.7181210514       -2.0551264917       -0.0097087961
 H          5.5846907647       -0.4727686296        0.4151078694
 H          5.1108598489        1.9411593646        0.6484908931
 H          2.7768263190        2.7620291297        0.4559995992
  32
 Etot=  -51.4237532882 g norm=  0.00068822
 C         -5.0890338486        0.3696313825        1.5975256984
 C         -4.1973354681        0.5638987841        0.4107734502
 C         -4.8853122038        0.8584566888       -0.8905078401
 C         -2.8741983189        0.4777937673        0.5053722739
 C         -1.9326985551        0.6860194675       -0.6524643147
 C         -0.5284525732        0.2356891326       -0.3542641152
 C         -0.2566611508       -1.0350514104        0.0418547571
 O         -1.1825115724       -1.9891355309        0.1891800115
 C          1.1188119686       -1.5085939593        0.3510106185
 O          1.3235937681       -2.6629674852        0.6960227238
 C          2.1923334854       -0.5137775694        0.2175462058
 C          3.5037505328       -0.8823364870        0.5046823589
 C          4.5329583596        0.0371587092        0.3858998778
 C          4.2591215814        1.3329510862       -0.0223176294
 C          2.9564785157        1.7092246806       -0.3109557450
 C          1.9149021205        0.7960285650       -0.1942802383
 C          0.5353787628        1.2257798849       -0.5073027692
 O          0.2989450451        2.3720177304       -0.8826966878
 H         -5.8013851101       -0.4306889503        1.4023188989
 H         -5.6566193779        1.2791543570        1.7897159938
 H         -4.5159439432        0.1224416332        2.4872081821
 H         -5.9454022571        1.0342349546       -0.7324597317
 H         -4.7774100100        0.0237568541       -1.5831480408
 H         -4.4509048295        1.7380856293       -1.3628128334
 H         -2.4117506316        0.2953989762        1.4663390240
 H         -1.8851127100        1.7507219523       -0.9052986076
 H         -2.3090994305        0.1671088635       -1.5401121683
 H         -2.0802664296       -1.6486312345        0.0237912992
 H          3.6910656235       -1.8976363600        0.8205766389
 H          5.5450796461       -0.2583267044        0.6119321222
 H          5.0574298806        2.0518270606       -0.1170200342
 H          2.7211938121        2.7133607601       -0.6308950080
  32
 Etot=  -51.4237048537 g norm=  0.00024194
 C         -4.9958929101       -0.6421344737        1.5409202448
 C         -4.1380585321       -0.0336974195        0.4715546913
 C         -4.8597749875        0.2256475184       -0.8153876047
 C         -2.8593407364        0.2533552523        0.7037517651
 C         -1.8881015913        0.9093273581       -0.2383953434
 C         -0.4886230170        0.3643596866       -0.1076222295
 C         -0.2369091352       -0.9705025238       -0.1314118190
 O         -1.1813071282       -1.9080321831       -0.2625901360
 C          1.1349991472       -1.5357724694       -0.0279604340
 O          1.3216929979       -2.7430313300       -0.0637813842
 C          2.2282380745       -0.5635258989        0.1121782912
 C          3.5390244814       -1.0206153925        0.2170705782
 C          4.5862743062       -0.1238666331        0.3513309440
 C          4.3311690359        1.2379964270        0.3814419764
 C          3.0292593387        1.7028457457        0.2777752476
 C          1.9699433915        0.8129207346        0.1425863077
 C          0.5917204598        1.3374915886        0.0360519791
 O          0.3699207086        2.5461531797        0.0657312909
 H         -5.3895784646       -1.6018419419        1.2094096346
 H         -5.8449984422        0.0065128476        1.7496585104
 H         -4.4378063312       -0.7920768036        2.4609256131
 H         -5.5534179522        1.0546778633       -0.6801330090
 H         -5.4434674672       -0.6481362622       -1.0989742948
 H         -4.1890186712        0.4796644011       -1.6298806544
 H         -2.4512899567        0.0546426381        1.6875386529
 H         -1.8345467539        1.9812769494       -0.0213360248
 H         -2.2153955918        0.8078674514       -1.2762983048
 H         -2.0751234386       -1.5114060614       -0.2471378146
 H          3.7115923882       -2.0860998970        0.1915323606
 H          5.5978065527       -0.4885871335        0.4325403221
 H          5.1433712310        1.9397987351        0.4854213494
 H          2.8082922845        2.7596175719        0.2988575583
  32
 Etot=  -51.4237153678 g norm=  0.00038233
 C         -5.0811285519       -0.7211343333        1.1513031579
 C         -4.1880051084        0.0665534004        0.2392606124
 C         -4.8764824667        0.6001849885       -0.9798894533
 C         -2.9084059141        0.2681593012        0.5444168651
 C         -1.9048025251        1.0770178946       -0.2299276334
 C         -0.5225750615        0.4762925897       -0.1967216286
 C         -0.3039208139       -0.8289126637       -0.5037381464
 O         -1.2676262562       -1.6885925178       -0.8507415737
 C          1.0504838323       -1.4436232844       -0.4994332750
 O          1.2071798701       -2.6210068478       -0.7869620611
 C          2.1646897796       -0.5559527076       -0.1381550794
 C          3.4613193504       -1.0622906644       -0.1167782261
 C          4.5279976071       -0.2455644812        0.2208804060
 C          4.3064631338        1.0846224227        0.5405813126
 C          3.0187849054        1.5978227495        0.5226763672
 C          1.9402504275        0.7884558554        0.1848446678
 C          0.5779868427        1.3629354571        0.1741451580
 O          0.3851162545        2.5413589451        0.4657183846
 H         -5.4839887685       -1.5884585560        0.6304242172
 H         -5.9232448929       -0.1072416480        1.4665989389
 H         -4.5471678225       -1.0605620221        2.0345188981
 H         -5.5196900019        1.4325835774       -0.6971284197
 H         -5.5080486157       -0.1693675404       -1.4192843433
 H         -4.1808964715        0.9558912217       -1.7332748700
 H         -2.5237534483       -0.1371905955        1.4726222354
 H         -1.8279473738        2.0787313047        0.2056797443
 H         -2.2166076781        1.2023634033       -1.2699026490
 H         -2.1520574525       -1.2805139273       -0.7665460608
 H          3.6074692072       -2.1018603359       -0.3689171997
 H          5.5284617948       -0.6476770556        0.2338979438
 H          5.1339455196        1.7241577161        0.8037369046
 H          2.8240390209        2.6310818137        0.7686558989
  32
 Etot=  -51.4237017963 g norm=  0.00035539
 C         -4.8680088008       -0.0273386390        1.8198570315
 C         -4.0431756964        0.0311145296        0.5682619163
 C         -4.7825495361       -0.3752268138       -0.6699250365
 C         -2.7768916614        0.4392323183        0.6034803871
 C         -1.8444891679        0.6112959981       -0.5637065155
 C         -0.4187133077        0.2522088923       -0.2316203570
 C         -0.0986612059       -0.9258922812        0.3643950861
 O         -0.9936523789       -1.8571462498        0.7108168749
 C          1.3005207448       -1.3134745651        0.6878051326
 O          1.5480051747       -2.3810000731        1.2288755461
 C          2.3438157607       -0.3477889442        0.3147671374
 C          3.6777533612       -0.6494573601        0.5750321488
 C          4.6789320234        0.2448117760        0.2333683120
 C          4.3540857684        1.4492652227       -0.3704337888
 C          3.0285918193        1.7590498971       -0.6326856942
 C          2.0150901083        0.8692154400       -0.2958521254
 C          0.6105248063        1.2259650698       -0.5885203423
 O          0.3261460984        2.3000058375       -1.1144180820
 H         -5.2163619008       -1.0436629888        1.9972623828
 H         -5.7466967906        0.6070522604        1.7149496363
 H         -4.3007149074        0.3037262183        2.6852479343
 H         -4.1248076707       -0.5361071540       -1.5181713883
 H         -5.4934658963        0.4051598097       -0.9393507061
 H         -5.3482731802       -1.2864933920       -0.4851858999
 H         -2.3527192117        0.7409870641        1.5536710230
 H         -1.8437799621        1.6599563457       -0.8790972443
 H         -2.1723481427        0.0189145277       -1.4216604301
 H         -1.9069470254       -1.5413945203        0.5618508903
 H          3.9047201583       -1.5938204171        1.0465526847
 H          5.7091120830        0.0009271180        0.4384050063
 H          5.1303375222        2.1481844850       -0.6385354836
 H          2.7533938556        2.6916486933       -1.1023177163
  32
 Etot=  -51.4237345136 g norm=  0.00022402
 C         -5.0733179561       -0.5027802041       -1.2299230697
 C         -4.1514343396       -0.0613105005       -0.1326063235
 C         -4.7873478375       -0.0132304503        1.2236852487
 C         -2.8907681589        0.2763211271       -0.3941407031
 C         -1.8696610321        0.7893161802        0.5825997674
 C         -0.4751333760        0.3017218205        0.2830460527
 C         -0.2092957934       -1.0108766747        0.0544198956
 O         -1.1330005304       -1.9776016274        0.0701264542
 C          1.1587179686       -1.5194006713       -0.2331784097
 O          1.3557513574       -2.7065972817       -0.4462938576
 C          2.2355301469       -0.5192384739       -0.2370607629
 C          3.5443628325       -0.9260929637       -0.4810852632
 C          4.5765336026       -0.0022338323       -0.4881051450
 C          4.3079871819        1.3367911440       -0.2520210324
 C          3.0075603171        1.7518633616       -0.0105068872
 C          1.9634338743        0.8341477237        0.0001207964
 C          0.5863548750        1.3054863770        0.2598591053
 O          0.3504242125        2.4965340073        0.4514349726
 H         -5.4181744433       -1.5194383759       -1.0468398002
 H         -4.5834848632       -0.4694659360       -2.1991813898
 H         -5.9501811532        0.1416828055       -1.2587386905
 H         -5.4546065691       -0.8623858412        1.3546757331
 H         -5.3837525542        0.8941957527        1.3127777909
 H         -4.0578307831       -0.0128862278        2.0281587941
 H         -2.5427548054        0.2421209103       -1.4195671044
 H         -2.1329586189        0.5157559289        1.6076115568
 H         -1.8407052051        1.8831699465        0.5417709793
 H         -2.0320148021       -1.6069411034        0.1761221215
 H          3.7276061524       -1.9744940095       -0.6625403385
 H          5.5868851415       -0.3281242562       -0.6773245874
 H          5.1086212117        2.0593174848       -0.2561599947
 H          2.7758657817        2.7903186042        0.1736908023
  32
 Etot=  -51.4237349842 g norm=  0.00024057
 C         -4.9518878771       -0.2026274850        1.6540721035
 C         -4.1051122258        0.0109581316        0.4347809896
 C         -4.8440304312       -0.1342430422       -0.8609431814
 C         -2.8182993207        0.3314431115        0.5423681513
 C         -1.8675904715        0.6349610373       -0.5830123481
 C         -0.4482747611        0.2355726493       -0.2722666857
 C         -0.1355033922       -1.0117873814        0.1658614918
 O         -1.0308204333       -1.9860802708        0.3599314437
 C          1.2575933301       -1.4348101089        0.4707085895
 O          1.4985345544       -2.5655472181        0.8669086186
 C          2.3033611438       -0.4233010502        0.2629078928
 C          3.6316137014       -0.7522006672        0.5190765451
 C          4.6350334641        0.1840094913        0.3306315873
 C          4.3180039457        1.4577540610       -0.1141362962
 C          2.9980636363        1.7951144950       -0.3704260434
 C          1.9824545632        0.8638241097       -0.1868371714
 C          0.5839890842        1.2509578854       -0.4695109291
 O          0.3068223811        2.3834013846       -0.8588455501
 H         -5.3562495559       -1.2137355194        1.6620364327
 H         -5.7936442351        0.4878636016        1.6460518379
 H         -4.3815988863       -0.0471022606        2.5656988654
 H         -5.5345786351       -0.9730674178       -0.8067497848
 H         -4.1794059742       -0.2800511881       -1.7067363625
 H         -5.4292128044        0.7656070330       -1.0473056800
 H         -2.3899727934        0.4509715284        1.5300982897
 H         -1.8609714150        1.7128001742       -0.7765656968
 H         -2.1857549722        0.1470198715       -1.5080159997
 H         -1.9428668754       -1.6652886258        0.2229527682
 H          3.8523783563       -1.7507819425        0.8652834162
 H          5.6608177972       -0.0811502755        0.5313693642
 H          5.0959711264        2.1898333045       -0.2619676636
 H          2.7291025044        2.7816580970       -0.7174100602
  32
 Etot=  -51.4239714778 g norm=  0.00023023
 C         -4.5912844164        0.1448491316       -1.6745883846
 C         -3.7330487363        0.5525460505       -0.5156760363
 C         -3.7522631549        2.0174825550       -0.1861614118
 C         -3.0317325237       -0.3436249415        0.1695096514
 C         -2.1372352596       -0.0476600520        1.3461430772
 C         -0.7004710931       -0.2681151314        0.9425777473
 C         -0.1314743346       -1.5014221622        0.9260701720
 O         -0.7510012149       -2.6286946038        1.2985212023
 C          1.2715797964       -1.7377918118        0.4939988266
 O          1.7567772127       -2.8594474661        0.5227073694
 C          2.0212649965       -0.5569058387        0.0444294393
 C          3.3349305769       -0.7071836205       -0.3910463352
 C          4.0618768180        0.3915234486       -0.8190007537
 C          3.4806706809        1.6496691304       -0.8148166984
 C          2.1733816978        1.8091792847       -0.3823692956
 C          1.4333725965        0.7142535275        0.0493004645
 C          0.0412924301        0.9135007957        0.5048423136
 O         -0.4640783492        2.0332707976        0.5173182446
 H         -5.6233163799        0.4425616322       -1.4953640276
 H         -4.5576546270       -0.9291342486       -1.8370297236
 H         -4.2532578268        0.6465404886       -2.5805439590
 H         -2.7411166224        2.4009004729       -0.0590569499
 H         -4.2987020125        2.1934685449        0.7394918262
 H         -4.2379158718        2.5783681088       -0.9793272606
 H         -3.0541266279       -1.3797240601       -0.1429532814
 H         -2.4069523901       -0.6827580460        2.1936186346
 H         -2.2481170233        0.9917002847        1.6501542418
 H         -1.6550370265       -2.4617744993        1.6160290821
 H          3.7648168555       -1.6976204198       -0.3843559055
 H          5.0787697009        0.2643523810       -1.1543447166
 H          4.0430797662        2.5078302405       -1.1469870342
 H          1.7026466213        2.7809114482       -0.3701540085
  32
 Etot=  -51.4237191005 g norm=  0.00032205
 C         -4.9992071029       -0.6323867755        1.5085848171
 C         -4.1378286435       -0.0526501698        0.4261612318
 C         -4.8526807818        0.1677722921       -0.8720651940
 C         -2.8617096552        0.2471376919        0.6563370875
 C         -1.8897503810        0.8806840311       -0.3001308424
 C         -0.4877385819        0.3491891919       -0.1443135177
 C         -0.2267281700       -0.9839574169       -0.1242436172
 O         -1.1628523345       -1.9324998082       -0.2332941549
 C          1.1482570242       -1.5357556156        0.0086619383
 O          1.3438491347       -2.7421216298        0.0100308215
 C          2.2331786634       -0.5518970060        0.1314288781
 C          3.5455752803       -0.9960650077        0.2672060940
 C          4.5849501206       -0.0880293655        0.3858630751
 C          4.3203071905        1.2722513066        0.3693280513
 C          3.0167516519        1.7242263230        0.2344070820
 C          1.9652493464        0.8228952488        0.1147911264
 C          0.5850286923        1.3339390563       -0.0253799306
 O          0.3552619320        2.5413940329       -0.0408549291
 H         -5.3726974942       -1.6110925330        1.2108865475
 H         -5.8614187787        0.0096896229        1.6806926440
 H         -4.4503094694       -0.7364709169        2.4404522167
 H         -5.5142628574        1.0283104057       -0.7792045283
 H         -5.4686925691       -0.6969169991       -1.1110742784
 H         -4.1744451169        0.3553110917       -1.6985633999
 H         -2.4570766943        0.0784985485        1.6471411181
 H         -1.8442949285        1.9591058029       -0.1155849737
 H         -2.2112147459        0.7467693312       -1.3361030783
 H         -2.0602150368       -1.5440069175       -0.2393413747
 H          3.7257332320       -2.0605252008        0.2774194475
 H          5.5978055218       -0.4427072632        0.4912866673
 H          5.1263131595        1.9828059790        0.4613700190
 H          2.7884112125        2.7795270846        0.2189776851
  32
 Etot=  -51.4236786826 g norm=  0.00030743
 C         -5.0961343360       -0.2694313690        1.4073628663
 C         -4.1913302172        0.3372070757        0.3803790805
 C         -4.8598369161        1.1301351046       -0.7046483500
 C         -2.8722197822        0.1809929992        0.4246473259
 C         -1.9235490680        0.7902956478       -0.5755046484
 C         -0.5138033087        0.2872260631       -0.4267973399
 C         -0.2097296875       -1.0305096685       -0.5552671221
 O         -1.1055645773       -1.9857188249       -0.8270387936
 C          1.1744607409       -1.5575015871       -0.4163521120
 O          1.4111643721       -2.7478969574       -0.5595879003
 C          2.2157678973       -0.5696911918       -0.1006812756
 C          3.5320205068       -0.9934211250        0.0607672603
 C          4.5311725423       -0.0815006957        0.3592707249
 C          4.2221145656        1.2623012519        0.4983600882
 C          2.9145361961        1.6940344166        0.3380037103
 C          1.9031032013        0.7885766992        0.0389887454
 C          0.5182367197        1.2780413752       -0.1291845184
 O          0.2521646233        2.4733383980       -0.0235011654
 H         -4.5352803705       -0.8478527210        2.1367658069
 H         -5.8250979245       -0.9197791695        0.9256384176
 H         -5.6442610560        0.5137744152        1.9294647973
 H         -5.9222285084        1.2345051243       -0.5058964600
 H         -4.7380232188        0.6428004045       -1.6715475247
 H         -4.4181400698        2.1225522715       -0.7791914768
 H         -2.4186925562       -0.3725672539        1.2358134258
 H         -1.8966592180        1.8771475644       -0.4433708488
 H         -2.2816161538        0.6042869970       -1.5936862196
 H         -2.0109583008       -1.6320454362       -0.8823711114
 H          3.7473389377       -2.0452423259       -0.0532820676
 H          5.5473871907       -0.4204668576        0.4826158979
 H          4.9965537736        1.9758379307        0.7311767592
 H          2.6521750511        2.7364395866        0.4408764653
  32
 Etot=  -51.4236468227 g norm=  0.00041477
 C         -4.8865877865       -0.0760327147        1.8356485047
 C         -4.0591646237        0.0623205493        0.5917772417
 C         -4.7892802719       -0.2948032558       -0.6667949662
 C         -2.8001990731        0.4887022020        0.6552330457
 C         -1.8575650448        0.7335319445       -0.4904363338
 C         -0.4466589204        0.2998735767       -0.1829080932
 C         -0.1680023709       -0.9475429026        0.2771068859
 O         -1.0925337555       -1.8858557016        0.5067770631
 C          1.2157991898       -1.4134989567        0.5608335000
 O          1.4275214791       -2.5499717730        0.9572495071
 C          2.2889661806       -0.4358578941        0.3321363236
 C          3.6091729630       -0.8015784043        0.5794919842
 C          4.6379136934        0.1033886780        0.3754045488
 C          4.3544116331        1.3824265297       -0.0766068738
 C          3.0428730601        1.7555783161       -0.3266272173
 C          2.0020438923        0.8558788802       -0.1274687847
 C          0.6136060067        1.2802312929       -0.4067482359
 O          0.3669710927        2.4141845461       -0.8117064508
 H         -4.3188091295        0.1929187996        2.7220746290
 H         -5.2408978600       -1.1000270012        1.9430857912
 H         -5.7615012496        0.5691381103        1.7732346674
 H         -5.2691524643       -1.2656742427       -0.5567958964
 H         -4.1417681324       -0.3200294388       -1.5372188570
 H         -5.5729077160        0.4389275950       -0.8507033562
 H         -2.3860042204        0.7455439800        1.6226974002
 H         -1.8208926598        1.8059499265       -0.7083771678
 H         -2.1973317977        0.2300259572       -1.3985700703
 H         -1.9956527755       -1.5304643770        0.3925827074
 H          3.8038702285       -1.8034620323        0.9316111961
 H          5.6571839599       -0.1906150385        0.5689828779
 H          5.1520170394        2.0906113614       -0.2356933436
 H          2.8000395900        2.7467439682       -0.6796873331
  32
 Etot=  -51.4237409361 g norm=  0.00038487
 C         -4.9997190978       -0.0524902461        1.6671431159
 C         -4.1480241555        0.1853649817        0.4553725677
 C         -4.8919053553        0.0969348470       -0.8421430574
 C         -2.8546055933        0.4732277903        0.5757269529
 C         -1.8891104134        0.7925603782       -0.5329106954
 C         -0.4900693146        0.3145800886       -0.2406112848
 C         -0.2375307549       -0.9686803909        0.1266760330
 O         -1.1799301267       -1.9069934916        0.2659303319
 C          1.1334467719       -1.4750873974        0.4028778150
 O          1.3210190858       -2.6395244832        0.7228881075
 C          2.2249161336       -0.5008614254        0.2624922455
 C          3.5352518792       -0.9048976843        0.5030742451
 C          4.5808963962       -0.0048019521        0.3794947559
 C          4.3244054883        1.3076216192        0.0154489884
 C          3.0229630856        1.7193736947       -0.2261654868
 C          1.9653361407        0.8250718213       -0.1070719633
 C          0.5880083032        1.2917351376       -0.3737691883
 O          0.3649707539        2.4568802387       -0.6955312470
 H         -5.4427178187       -1.0465563348        1.6297243433
 H         -5.8145018552        0.6692578051        1.6952145023
 H         -4.4219957673        0.0388773305        2.5827914784
 H         -5.5263154444       -0.7873213965       -0.8501809721
 H         -4.2316732718        0.0644069303       -1.7029088503
 H         -5.5387345053        0.9670629973       -0.9478814771
 H         -2.4270175186        0.5475871353        1.5683829836
 H         -1.8340383753        1.8776516307       -0.6695266452
 H         -2.2237058472        0.3654850569       -1.4818504434
 H         -2.0746735642       -1.5321850014        0.1507706018
 H          3.7086175941       -1.9321651837        0.7865329238
 H          5.5922640499       -0.3282550290        0.5673519042
 H          5.1354297557        2.0117873843       -0.0814479682
 H          2.8009732494        2.7368389736       -0.5116528645
  32
 Etot=  -51.4239592769 g norm=  0.00029536
 C         -4.4634822029        0.3552282608       -1.8825423435
 C         -3.5947785701        0.7253175182       -0.7188347665
 C         -3.5541859238        2.1893648851       -0.3872586407
 C         -2.9342792641       -0.2002516089       -0.0321412901
 C         -2.0327946791        0.0565353710        1.1483726398
 C         -0.6030976075       -0.2066808811        0.7447632329
 C         -0.0748495194       -1.4576734363        0.7161257524
 O         -0.7315005042       -2.5670819446        1.0784127605
 C          1.3190345245       -1.7363579833        0.2799160790
 O          1.7651339942       -2.8744463829        0.2926310809
 C          2.1083905177       -0.5762393062       -0.1554665346
 C          3.4164543601       -0.7652397244       -0.5928281208
 C          4.1801131284        0.3135245016       -1.0073797114
 C          3.6416758124        1.5904007482       -0.9875399387
 C          2.3402943549        1.7884241018       -0.5531642355
 C          1.5636866882        0.7137920320       -0.1351635101
 C          0.1787244677        0.9542458697        0.3217577202
 O         -0.2883220665        2.0902188795        0.3472367315
 H         -5.4814392823        0.7015447559       -1.7106634883
 H         -4.4791185417       -0.7195208452       -2.0431179835
 H         -4.0965075878        0.8387695855       -2.7869800913
 H         -4.0970391984        2.3868704352        0.5362506551
 H         -4.0124822227        2.7706071884       -1.1821323301
 H         -2.5288756160        2.5310825466       -0.2552324190
 H         -2.9973223174       -1.2337873051       -0.3472701823
 H         -2.3253374755       -0.5768569660        1.9894199643
 H         -2.1105259838        1.0961921269        1.4612876521
 H         -1.6285985711       -2.3718463061        1.3995414061
 H          3.8130093059       -1.7694761190       -0.5984218633
 H          5.1921371393        0.1562205863       -1.3449538287
 H          4.2325748374        2.4329941542       -1.3097888805
 H          1.9020205303        2.7749274020       -0.5295269212
  32
 Etot=  -51.4236734805 g norm=  0.00040770
 C         -5.1254983270       -0.0745460696       -1.3349526951
 C         -4.2082747400        0.3834908438       -0.2440703265
 C         -4.8583633900        1.0527652822        0.9313385145
 C         -2.8930931334        0.2042512136       -0.3096655018
 C         -1.9334411497        0.6625522213        0.7585183914
 C         -0.5212438147        0.2080018155        0.5109808361
 C         -0.2002477536       -1.1094283877        0.4280263240
 O         -1.0805764289       -2.1070810679        0.5666228620
 C          1.1850212984       -1.5895144870        0.1772815216
 O          1.4350137710       -2.7843460841        0.1172686600
 C          2.2104559741       -0.5506506778        0.0069356021
 C          3.5280596240       -0.9261614273       -0.2400263249
 C          4.5119283485        0.0344850504       -0.4069486976
 C          4.1862442769        1.3792092473       -0.3280484846
 C          2.8773891904        1.7629061771       -0.0806593733
 C          1.8811012021        0.8083581788        0.0885504658
 C          0.4945173763        1.2469734746        0.3545882962
 O          0.2136961497        2.4404148842        0.4412974979
 H         -5.8662681757       -0.7652414182       -0.9343614159
 H         -4.5765271892       -0.5698924838       -2.1314282460
 H         -5.6589114852        0.7770123544       -1.7552393717
 H         -4.7380103463        0.4536279696        1.8333838647
 H         -5.9199928614        1.1963322258        0.7543212816
 H         -4.4000096214        2.0225967315        1.1188477670
 H         -2.4522806511       -0.2564192410       -1.1834684712
 H         -2.2721158985        0.3142549761        1.7404821341
 H         -1.9214770999        1.7568226712        0.7990773115
 H         -1.9867660905       -1.7755444386        0.6963028895
 H          3.7563912437       -1.9798086068       -0.2969790204
 H          5.5293786940       -0.2671321776       -0.5978273808
 H          4.9488996503        2.1305159504       -0.4581513084
 H          2.6020669460        2.8048867401       -0.0145903705
  32
 Etot=  -51.4237047768 g norm=  0.00036239
 C         -5.0869261584       -0.6073601831        1.1385353529
 C         -4.1904409633        0.0776397195        0.1502325416
 C         -4.8764791876        0.4883858339       -1.1171291039
 C         -2.9098225682        0.3042887907        0.4321471976
 C         -1.9071741311        1.0290275409       -0.4226592121
 C         -0.5195743299        0.4507452235       -0.3124045582
 C         -0.2836719691       -0.8767722151       -0.4786794742
 O         -1.2347855504       -1.7794046287       -0.7413803473
 C          1.0777281072       -1.4710790351       -0.4012198618
 O          1.2516323902       -2.6685121606       -0.5729805085
 C          2.1774699061       -0.5383270126       -0.1171683064
 C          3.4787849904       -1.0246382617       -0.0265295185
 C          4.5318689369       -0.1654098441        0.2411114105
 C          4.2921087286        1.1877830427        0.4203688002
 C          2.9997310396        1.6814524055        0.3322253662
 C          1.9347086264        0.8292862646        0.0639915985
 C          0.5671099886        1.3839271417       -0.0238564144
 O          0.3584982374        2.5840260015        0.1406734632
 H         -4.5586435420       -0.8414794943        2.0587574475
 H         -5.4799890983       -1.5308072698        0.7156021760
 H         -5.9352353951        0.0327939064        1.3754314057
 H         -5.4814894756        1.3750307362       -0.9308539678
 H         -5.5441535007       -0.3019997145       -1.4538844988
 H         -4.1785414567        0.7220874207       -1.9150649220
 H         -2.5253553350       -0.0042137052        1.3967716706
 H         -1.8432923764        2.0746644888       -0.1038637761
 H         -2.2129143793        1.0321772702       -1.4719535067
 H         -2.1243293762       -1.3760413098       -0.7077500899
 H          3.6394416442       -2.0825082735       -0.1705299145
 H          5.5360841593       -0.5522938178        0.3086341837
 H          5.1089411145        1.8603797446        0.6286871748
 H          2.7906966761        2.7320010549        0.4688890355
  32
 Etot=  -51.4237226200 g norm=  0.00064263
 C         -5.0731633920       -0.6066971239       -1.0147174892
 C         -4.1309546632       -0.0698612467        0.0213280757
 C         -4.7384588013        0.0856238235        1.3821892282
 C         -2.8788156699        0.2513648228       -0.2960784365
 C         -1.8379300782        0.8478435511        0.6099762364
 C         -0.4499497788        0.3328259226        0.3259383543
 C         -0.1899502113       -0.9955599199        0.2101643087
 O         -1.1151777890       -1.9536333160        0.3302261606
 C          1.1716477742       -1.5312679482       -0.0562232870
 O          1.3639027909       -2.7332763657       -0.1654744541
 C          2.2491289303       -0.5382349386       -0.1701833840
 C          3.5527448554       -0.9686347350       -0.4009166219
 C          4.5855300337       -0.0517521713       -0.5094812571
 C          4.3226167375        1.3036393489       -0.3896111969
 C          3.0272531223        1.7420233200       -0.1622107559
 C          1.9827152092        0.8317802730       -0.0500610237
 C          0.6113945809        1.3282194954        0.1920145611
 O          0.3799399763        2.5321690991        0.2808905818
 H         -5.9524637720        0.0314150849       -1.0822287318
 H         -5.4111564425       -1.6040884235       -0.7376188749
 H         -4.6018564486       -0.6567509599       -1.9925758109
 H         -3.9933776349        0.1940945188        2.1643145398
 H         -5.3667931460       -0.7724166663        1.6118936433
 H         -5.3712292803        0.9723388201        1.3974764305
 H         -2.5538281569        0.1340657436       -1.3229157147
 H         -2.0788384274        0.6656601230        1.6605297836
 H         -1.8100995155        1.9337258953        0.4718522648
 H         -2.0105370970       -1.5694400564        0.4178001354
 H          3.7312738050       -2.0296834889       -0.4904680086
 H          5.5918632107       -0.3958763585       -0.6871684455
 H          5.1238431238        2.0207589127       -0.4720393439
 H          2.8000313178        2.7933485757       -0.0665657003
  32
 Etot=  -51.4235854597 g norm=  0.00020932
 C         -5.0056704550       -0.5529338815        1.5194590759
 C         -4.1721908769        0.0990182065        0.4566758706
 C         -4.9588047284        0.6378244798       -0.6991186840
 C         -2.8502280868        0.1768349179        0.5731980942
 C         -1.9006389216        0.8267870701       -0.4002481760
 C         -0.4944234672        0.3049037953       -0.2651926016
 C         -0.2164021525       -1.0226380618       -0.3427707363
 O         -1.1367202667       -1.9700964506       -0.5527877590
 C          1.1602391227       -1.5691583960       -0.2081927085
 O          1.3707517517       -2.7701951077       -0.2908887980
 C          2.2279711723       -0.5866005055        0.0259595468
 C          3.5401933705       -1.0270015989        0.1742973176
 C          4.5639921094       -0.1200838842        0.3949500724
 C          4.2836861846        1.2351466974        0.4673536034
 C          2.9798875734        1.6832936164        0.3216876253
 C          1.9438378816        0.7830285302        0.1015559569
 C          0.5626913077        1.2894191958       -0.0455273721
 O          0.3195268199        2.4927842813        0.0146577353
 H         -5.6139254211       -1.3459607041        1.0874090527
 H         -5.6825482968        0.1762226735        1.9625685034
 H         -4.3864841203       -0.9739033163        2.3069282886
 H         -5.7154358345        1.3288970485       -0.3313337515
 H         -5.4780153349       -0.1728365213       -1.2092198386
 H         -4.3360541676        1.1645101308       -1.4143632495
 H         -2.3806336038       -0.2116663669        1.4686879729
 H         -1.8610250964        1.9055632606       -0.2159589487
 H         -2.2416451910        0.6858196055       -1.4296260411
 H         -2.0362974272       -1.5949042553       -0.5837746079
 H          3.7331626364       -2.0874393314        0.1122984381
 H          5.5767087227       -0.4724227138        0.5089507245
 H          5.0773758596        1.9447893521        0.6389184391
 H          2.7397153850        2.7346902211        0.3755633155
  32
 Etot=  -51.4229802719 g norm=  0.00027256
 C         -4.7952683522        0.6471017282        1.8417326079
 C         -3.9902438768        0.7388068371        0.5818605816
 C         -4.5273477915        1.6629730615       -0.4727585190
 C         -2.8772493290        0.0346104687        0.4145654964
 C         -2.0186706424        0.0706076691       -0.8249978431
 C         -0.5725410566       -0.1819102812       -0.4945486330
 C         -0.1122960752       -1.4197391911       -0.1783991463
 O         -0.8710143580       -2.5218110700       -0.1511969110
 C          1.3086370319       -1.6882968685        0.1699596476
 O          1.6917440190       -2.8224486705        0.4154904301
 C          2.2001828749       -0.5205708347        0.2020506416
 C          3.5379057881       -0.6931416793        0.5470957519
 C          4.3980875974        0.3918506685        0.5849400244
 C          3.9275795002        1.6586152984        0.2769536930
 C          2.5977762343        1.8400334748       -0.0698428740
 C          1.7243553689        0.7592993596       -0.1102759101
 C          0.3123461771        0.9816318235       -0.4880750813
 O         -0.0945721055        2.1017374902       -0.7868586232
 H         -4.8699210747        1.6295124143        2.3059808749
 H         -4.3443422449       -0.0413678631        2.5515020480
 H         -5.8053707720        0.3084411405        1.6156545899
 H         -4.7597864865        1.1149916564       -1.3845627482
 H         -3.7895709735        2.4254570975       -0.7225654200
 H         -5.4299097599        2.1574554820       -0.1256578635
 H         -2.5284458002       -0.6098599727        1.2109389726
 H         -2.0849531001        1.0562513981       -1.2887006942
 H         -2.3795001737       -0.6612565386       -1.5562184606
 H         -1.7952552372       -2.3342799701       -0.3904649458
 H          3.8799393364       -1.6899816077        0.7816986308
 H          5.4322725585        0.2475738540        0.8541350442
 H          4.5937357741        2.5062258024        0.3061821653
 H          2.2108207820        2.8179170914       -0.3146422915
  32
 Etot=  -51.4237176412 g norm=  0.00015987
 C         -5.0695020194       -0.7548219709        1.1329615558
 C         -4.1793704067        0.0037756690        0.1937388309
 C         -4.8700352503        0.4898086440       -1.0437800212
 C         -2.9010541981        0.2216951133        0.4921362541
 C         -1.8995408644        1.0055242912       -0.3109543448
 C         -0.5080848991        0.4326413281       -0.2222638200
 C         -0.2603501161       -0.8811242091       -0.4637599178
 O         -1.2012931101       -1.7733368836       -0.7905876593
 C          1.1042340087       -1.4700647182       -0.4028021692
 O          1.2876022792       -2.6564532304       -0.6315681818
 C          2.1947038116       -0.5464984996       -0.0595610438
 C          3.4992504657       -1.0273577098        0.0118445426
 C          4.5439359587       -0.1766337166        0.3340537863
 C          4.2923242537        1.1623963169        0.5880220877
 C          2.9965340609        1.6503894723        0.5199308081
 C          1.9399198381        0.8067545488        0.1970264631
 C          0.5685094409        1.3552245574        0.1309073020
 O          0.3489921897        2.5421402514        0.3633496515
 H         -5.4818083738       -1.6322552908        0.6369311458
 H         -5.9052818816       -0.1280640805        1.4404063579
 H         -4.5296321381       -1.0750633860        2.0198947858
 H         -5.5559761865        1.2946841480       -0.7822823330
 H         -5.4584650807       -0.3135518025       -1.4830124068
 H         -4.1787358218        0.8677299905       -1.7900846191
 H         -2.5161549233       -0.1469881694        1.4353828114
 H         -1.8472628469        2.0313841652        0.0686343384
 H         -2.1963013233        1.0661656395       -1.3610565012
 H         -2.0942830534       -1.3788902905       -0.7462063623
 H          3.6688753081       -2.0745826105       -0.1890417074
 H          5.5507750528       -0.5590301186        0.3856457376
 H          5.1024761096        1.8283367114        0.8390068185
 H          2.7785158524        2.6903059837        0.7128896679
  32
 Etot=  -51.4237358230 g norm=  0.00018799
 C         -5.1563023414       -0.5361347923        1.1784552405
 C         -4.2261689149        0.1826663530        0.2512447776
 C         -4.8719956839        0.9116310075       -0.8918168740
 C         -2.9096486180        0.1802663380        0.4400938337
 C         -1.9252253545        0.9162848534       -0.4289167063
 C         -0.5253464357        0.3725179091       -0.3272317794
 C         -0.2542852078       -0.9423945527       -0.5349437577
 O         -1.1789654220       -1.8593197773       -0.8411682654
 C          1.1193028779       -1.5067608480       -0.4556574726
 O          1.3238047780       -2.6946709554       -0.6577756058
 C          2.1924109267       -0.5576217225       -0.1275359129
 C          3.5038289325       -1.0155436545       -0.0352777189
 C          4.5323822801       -0.1406823942        0.2738959850
 C          4.2576663024        1.1997927912        0.4937986556
 C          2.9550084071        1.6652841201        0.4037260230
 C          1.9143453746        0.7972910078        0.0937548422
 C          0.5351735273        1.3221087575        0.0029833633
 O          0.2966623384        2.5125793256        0.1944181635
 H         -5.8468086744        0.1725918802        1.6335586169
 H         -4.6122450360       -1.0483708262        1.9675292959
 H         -5.7473752018       -1.2654218364        0.6261173872
 H         -4.6231929876        1.9709756995       -0.8554788260
 H         -5.9520289107        0.8073197274       -0.8512964294
 H         -4.5264445564        0.5245929834       -1.8495259634
 H         -2.4888926301       -0.3264830486        1.2987650797
 H         -1.8848110214        1.9697388699       -0.1315581510
 H         -2.2522896708        0.8938180549       -1.4730396803
 H         -2.0775209340       -1.4803174598       -0.8259407287
 H          3.6918412247       -2.0641540695       -0.2106887293
 H          5.5447744031       -0.5056384613        0.3423961286
 H          5.0552749273        1.8844327129        0.7349162400
 H          2.7189421528        2.7056420237        0.5708470467
  32
 Etot=  -51.4236949422 g norm=  0.00030458
 C         -5.0526946293       -0.6391182548        1.3189517220
 C         -4.1630002245       -0.0122979909        0.2868038033
 C         -4.8459968719        0.2739651408       -1.0156859051
 C         -2.8911455686        0.2680154666        0.5613713178
 C         -1.8926738590        0.9411072482       -0.3390402924
 C         -0.5008619350        0.3811837149       -0.1901767835
 C         -0.2586283453       -0.9546362115       -0.2424810223
 O         -1.2067489689       -1.8810537934       -0.4184790067
 C          1.1066497459       -1.5332151576       -0.1252043564
 O          1.2859310514       -2.7401869119       -0.1938224037
 C          2.2030417914       -0.5739419571        0.0693215256
 C          3.5072838428       -1.0443018426        0.1950702285
 C          4.5575618576       -0.1599331124        0.3784563820
 C          4.3120545448        1.2027656232        0.4369938425
 C          3.0167098027        1.6807597568        0.3131931072
 C          1.9543552062        0.8032950134        0.1292431541
 C          0.5831155206        1.3415332617        0.0034153159
 O          0.3695452197        2.5506859154        0.0601894917
 H         -5.9145098114        0.0000456940        1.5035015678
 H         -4.5261059994       -0.7939646137        2.2566607418
 H         -5.4256107908       -1.5986853516        0.9638976738
 H         -5.5175099533        1.1226972434       -0.8933323732
 H         -5.4479090800       -0.5808993998       -1.3172402294
 H         -4.1487692695        0.5110494671       -1.8129483869
 H         -2.5114516625        0.0487029083        1.5520997407
 H         -1.8361324348        2.0061971631       -0.0912947879
 H         -2.1959666421        0.8711105843       -1.3867760251
 H         -2.0979584540       -1.4781305849       -0.4104545082
 H          3.6723630025       -2.1100807874        0.1456020578
 H          5.5639834863       -0.5348249887        0.4750798024
 H          5.1267314012        1.8951426615        0.5787318203
 H          2.8032579216        2.7383827052        0.3564683827
  32
 Etot=  -51.4239553385 g norm=  0.00033471
 C         -4.4189872816        1.4123636941        1.6626136734
 C         -3.6371686293        1.0589521381        0.4338580020
 C         -3.6693484515        2.0824967015       -0.6646068892
 C         -2.9879801605       -0.0962298553        0.3405943299
 C         -2.1710393829       -0.5527030950       -0.8409998492
 C         -0.7109084805       -0.5621956432       -0.4611848404
 C         -0.1469979633       -1.5893105369        0.2256336903
 O         -0.7969942074       -2.6987192106        0.5994477702
 C          1.2823017143       -1.5992739013        0.6351972281
 O          1.7598047176       -2.5577997217        1.2249294896
 C          2.0664461255       -0.4066445801        0.2869140385
 C          3.4081317691       -0.3410131533        0.6523224450
 C          4.1673436894        0.7737030963        0.3365039305
 C          3.5903242533        1.8324345872       -0.3468594607
 C          2.2554370069        1.7753877924       -0.7162915172
 C          1.4833668110        0.6616288554       -0.4061085728
 C          0.0635870673        0.6260720330       -0.8158937122
 O         -0.4375654051        1.5610388460       -1.4353550015
 H         -4.0139890918        2.3189232771        2.1106830617
 H         -4.3863866643        0.6141728146        2.3994916452
 H         -5.4573542170        1.6075492185        1.3988388896
 H         -4.0973189503        3.0130536496       -0.3030059621
 H         -4.2758135454        1.7294237328       -1.4978713064
 H         -2.6670320039        2.2845525789       -1.0387577220
 H         -2.9963070991       -0.7735935346        1.1848205743
 H         -2.2993316241        0.1355576955       -1.6745436937
 H         -2.4966240388       -1.5449866820       -1.1633241819
 H         -1.7213742998       -2.6986109245        0.2968123432
 H          3.8340339542       -1.1788760912        1.1836116132
 H          5.2059759676        0.8142555715        0.6235458237
 H          4.1775523072        2.7025457823       -0.5941950407
 H          1.7873298921        2.5885358959       -1.2506119141
  32
 Etot=  -51.4236919793 g norm=  0.00030977
 C         -5.0980095858       -0.4727918494        1.2747874571
 C         -4.2032980691        0.1861830265        0.2679261015
 C         -4.9032703139        0.6406374618       -0.9771581528
 C         -2.9071257843        0.3605988071        0.5137837524
 C         -1.9079483665        1.0527588847       -0.3716555698
 C         -0.5241418687        0.4667199103       -0.2598484227
 C         -0.3014412563       -0.8680950545       -0.3802629203
 O         -1.2626637976       -1.7713316947       -0.6010116125
 C          1.0554733174       -1.4712860231       -0.2942339564
 O          1.2181157300       -2.6749725363       -0.4293626825
 C          2.1649545268       -0.5397797663       -0.0460638979
 C          3.4611997799       -1.0356790824        0.0632050888
 C          4.5235276951       -0.1774502627        0.2951607966
 C          4.2984950696        1.1845400511        0.4178026431
 C          3.0112441112        1.6877874626        0.3109356365
 C          1.9367608904        0.8364511664        0.0805350038
 C          0.5741756039        1.4007291076       -0.0224859874
 O          0.3787446519        2.6091425087        0.0898747601
 H         -4.5556106334       -0.7296742699        2.1805573300
 H         -5.5318415175       -1.3803871550        0.8571450075
 H         -5.9179867277        0.1945555601        1.5349659316
 H         -5.6769693719       -0.0716046662       -1.2547426019
 H         -4.2243003844        0.7656219481       -1.8153784790
 H         -5.3852481593        1.6002682420       -0.7928902790
 H         -2.5058611063        0.0320434075        1.4648062963
 H         -1.8325851333        2.1073138431       -0.0864902145
 H         -2.2268639839        1.0276186863       -1.4170934288
 H         -2.1484019415       -1.3589628355       -0.5766652442
 H          3.6105305313       -2.1003148985       -0.0365203469
 H          5.5235006739       -0.5720722957        0.3795280517
 H          5.1227390809        1.8565064164        0.5969930237
 H          2.8134457972        2.7452264633        0.4043418330
  32
 Etot=  -51.4237022994 g norm=  0.00063679
 C         -5.0460255301       -0.3120986352        1.5036184715
 C         -4.1733462419        0.1676492710        0.3820590466
 C         -4.8790627762        0.2913939804       -0.9340495706
 C         -2.8946377020        0.4694593238        0.5947064104
 C         -1.9067954492        1.0068622113       -0.4033313514
 C         -0.5238437347        0.4389660328       -0.2089763598
 C         -0.3114423462       -0.8991388699       -0.1083306646
 O         -1.2822642168       -1.8167807781       -0.1659740045
 C          1.0419957541       -1.4911056160        0.0635326443
 O          1.1954598800       -2.7018510050        0.1283512309
 C          2.1598849930       -0.5402903973        0.1458871063
 C          3.4539231197       -1.0220102693        0.3232026516
 C          4.5236524229       -0.1457843373        0.4057463517
 C          4.3080908346        1.2199161821        0.3109032215
 C          3.0232536361        1.7091807985        0.1335514647
 C          1.9415246710        0.8400570469        0.0499906900
 C          0.5822973263        1.3906517131       -0.1369010874
 O          0.3958099866        2.6024028880       -0.2252257852
 H         -5.4243155542       -1.3100620593        1.2867758818
 H         -5.9045180261        0.3479448677        1.6151454948
 H         -4.5033306433       -0.3412575192        2.4444204542
 H         -5.5279106879       -0.5677567808       -1.0929895432
 H         -4.1934965535        0.3737138391       -1.7717730890
 H         -5.5068117082        1.1821719481       -0.9256806299
 H         -2.4966965401        0.3749284964        1.5979442875
 H         -1.8252614621        2.0928893767       -0.2910295438
 H         -2.2347663956        0.8135762583       -1.4277401299
 H         -2.1644722474       -1.3949576549       -0.1906323427
 H          3.5958000871       -2.0899454805        0.3946134834
 H          5.5218146418       -0.5296535770        0.5441437845
 H          5.1379960655        1.9056236140        0.3744177969
 H          2.8325628100        2.7692718583        0.0564758301
  32
 Etot=  -51.4235974375 g norm=  0.00047621
 C         -5.0700255946       -0.5913685350        1.2709211980
 C         -4.2027706103        0.1584685608        0.3038923218
 C         -4.9546230662        0.8326242731       -0.8031271294
 C         -2.8827533996        0.1999287565        0.4552586781
 C         -1.9037590750        0.9361404248       -0.4229051353
 C         -0.5083475466        0.3782203554       -0.3237841629
 C         -0.2490170523       -0.9366768101       -0.5462085790
 O         -1.1799606627       -1.8395717584       -0.8727905993
 C          1.1178286670       -1.5164543989       -0.4587083096
 O          1.3123993690       -2.7034071870       -0.6746942497
 C          2.1964609905       -0.5835024140       -0.1035921937
 C          3.5007507281       -1.0578929240        0.0052923401
 C          4.5345513796       -0.1981119263        0.3383473730
 C          4.2723988849        1.1437656792        0.5649379945
 C          2.9768478336        1.6255078236        0.4589820673
 C          1.9309516435        0.7725496513        0.1259764109
 C          0.5592026074        1.3139319000        0.0221836160
 O          0.3321303822        2.5058877841        0.2184703397
 H         -5.6917579006       -1.3102201793        0.7398921096
 H         -5.7344650741        0.0988367855        1.7886615226
 H         -4.4749401000       -1.1193738325        2.0109610320
 H         -5.7345566036        1.4630345175       -0.3800991345
 H         -5.4422481124        0.0885991198       -1.4318653660
 H         -4.3139632365        1.4522089932       -1.4212798808
 H         -2.4382533011       -0.2913535248        1.3121214702
 H         -1.8509528609        1.9870731525       -0.1195848924
 H         -2.2273795431        0.9155751480       -1.4671682168
 H         -2.0735706149       -1.4492728188       -0.8728858620
 H          3.6790851820       -2.1070503444       -0.1767618379
 H          5.5410019872       -0.5761326949        0.4214729963
 H          5.0740247701        1.8166650903        0.8249298815
 H          2.7505873978        2.6672945345        0.6308489094
  32
 Etot=  -51.4249762795 g norm=  0.00022525
 C         -4.6130151622        0.0868920950        1.5006199806
 C         -3.4038536070        0.4403787618        0.6902530442
 C         -2.3961201158        1.2956049786        1.3975392939
 C         -3.2480543883       -0.0027575061       -0.5545230008
 C         -2.0788635780        0.3059313446       -1.4547244163
 C         -0.7301690034        0.0289462939       -0.8373475639
 C         -0.4548392890       -1.1419135298       -0.2062431737
 O         -1.3277687564       -2.1457265256       -0.0700461381
 C          0.8670032727       -1.4376178232        0.4068298946
 O          1.0754012908       -2.5033751342        0.9681500112
 C          1.8856183568       -0.3840118256        0.2951853183
 C          3.1455336646       -0.5903503118        0.8499059227
 C          4.1208066943        0.3891862788        0.7594793475
 C          3.8441417711        1.5831161985        0.1126701780
 C          2.5925116261        1.7975003156       -0.4433937692
 C          1.6053669772        0.8226104725       -0.3580888490
 C          0.2764592312        1.0826223411       -0.9504629691
 O          0.0315220682        2.1501212807       -1.5091066784
 H         -4.3092457441       -0.4013215814        2.4254865124
 H         -5.2800584956       -0.5741373571        0.9544191601
 H         -5.1590673586        0.9903356583        1.7680149438
 H         -1.7103294746        0.6711317845        1.9721606734
 H         -2.8950547582        1.9670868128        2.0920287318
 H         -1.8091956101        1.8879205092        0.6998864674
 H         -4.0360906675       -0.5954043738       -0.9993355741
 H         -2.0882468058        1.3638377269       -1.7366650889
 H         -2.1711695106       -0.2703662916       -2.3789902393
 H         -2.2068345468       -1.9017658209       -0.4177024887
 H          3.3358678156       -1.5280639594        1.3502141592
 H          5.0936845528        0.2190697972        1.1924875814
 H          4.6006755172        2.3482129396        0.0394218215
 H          2.3552377231        2.7212900095       -0.9496508052
  32
 Etot=  -51.4237600635 g norm=  0.00038993
 C         -5.1018841785       -0.1688983679        1.5253856543
 C         -4.2010243909        0.2396060541        0.4017056818
 C         -4.8800955688        0.6089824934       -0.8856963396
 C         -2.8791835897        0.2766217254        0.5421923873
 C         -1.9236963072        0.7054832257       -0.5395156588
 C         -0.5129291206        0.2412059366       -0.2958822472
 C         -0.2217543086       -1.0664595093       -0.0700667963
 O         -1.1332158661       -2.0453470582       -0.0498163867
 C          1.1613181636       -1.5560848328        0.1728829408
 O          1.3836504584       -2.7423131605        0.3658900464
 C          2.2207122811       -0.5374569432        0.1650363628
 C          3.5388841292       -0.9219941259        0.3942539248
 C          4.5548755285        0.0195449943        0.3922409189
 C          4.2609566005        1.3537926767        0.1597504784
 C          2.9514032488        1.7463412373       -0.0698285604
 C          1.9230070618        0.8111007896       -0.0691790933
 C          0.5356029334        1.2588418643       -0.3150224700
 O          0.2803225645        2.4422328545       -0.5278865077
 H         -4.5336570899       -0.4310298486        2.4138885117
 H         -5.7059563130       -1.0248402710        1.2275167552
 H         -5.7809771870        0.6458086850        1.7727350693
 H         -4.5912334451        1.6126021247       -1.1936763244
 H         -5.9594029050        0.5773031759       -0.7719986115
 H         -4.6003259297       -0.0746822241       -1.6863877300
 H         -2.4314160938        0.0410836923        1.4986908203
 H         -1.8986010105        1.7987959090       -0.6012394605
 H         -2.2682491754        0.3416608389       -1.5126642150
 H         -2.0377151597       -1.6955145548       -0.1533464300
 H          3.7420204048       -1.9672771761        0.5726166749
 H          5.5725212829       -0.2888731238        0.5715955442
 H          5.0488300919        2.0901549814        0.1568551070
 H          2.7004332945        2.7804947331       -0.2529665445
  32
 Etot=  -51.4237365898 g norm=  0.00039634
 C         -4.7774670700        0.2227443300        2.0044130263
 C         -3.9854999559        0.1172445389        0.7350957771
 C         -4.7494454536       -0.4595131964       -0.4179978022
 C         -2.7239511876        0.5376518523        0.6807009131
 C         -1.8214881439        0.5519971687       -0.5216757979
 C         -0.3868204226        0.2427452671       -0.1773215951
 C         -0.0479104953       -0.8416872592        0.5677062879
 O         -0.9292359182       -1.7189078410        1.0596879383
 C          1.3600036111       -1.1784399442        0.9093218320
 O          1.6246665730       -2.1612816943        1.5856379987
 C          2.3899882651       -0.2702114132        0.3863138758
 C          3.7304427045       -0.5295028042        0.6579230870
 C          4.7196087277        0.3110602215        0.1739805765
 C          4.3760323673        1.4191906607       -0.5843617008
 C          3.0437000871        1.6865106244       -0.8586831595
 C          2.0421003048        0.8496796443       -0.3800054304
 C          0.6297899727        1.1589404406       -0.6889272480
 O          0.3287626231        2.1484168996       -1.3532062718
 H         -4.1965596028        0.6846191359        2.7981637523
 H         -5.0974642977       -0.7648372450        2.3340022090
 H         -5.6728058451        0.8184326149        1.8340831223
 H         -5.4384044022        0.2896010049       -0.8063534418
 H         -5.3400344709       -1.3111116963       -0.0868805518
 H         -4.1048855498       -0.7750466413       -1.2324001605
 H         -2.2804312403        0.9729107493        1.5680286069
 H         -1.8328051810        1.5485204967       -0.9754895959
 H         -2.1675151292       -0.1506029720       -1.2839872070
 H         -1.8480048817       -1.4300283549        0.8922164137
 H          3.9723853179       -1.3985342398        1.2511457558
 H          5.7550418398        0.1005010831        0.3890570709
 H          5.1427812175        2.0761944772       -0.9636285841
 H          2.7537784104        2.5443475341       -1.4472961834
  32
 Etot=  -51.4239649093 g norm=  0.00039759
 C         -4.5714039811        0.6636948352       -1.7647426825
 C         -3.7226514836        0.7801344184       -0.5350846544
 C         -3.7384088322        2.1255646445        0.1319279078
 C         -3.0308344524       -0.2569345376       -0.0762386789
 C         -2.1446984252       -0.2523484363        1.1430496408
 C         -0.7061259064       -0.3850299115        0.7086304266
 C         -0.1432668204       -1.5865768611        0.4183438039
 O         -0.7722309279       -2.7641305967        0.5218138765
 C          1.2629485467       -1.7295390984       -0.0434688603
 O          1.7424747138       -2.8324485872       -0.2628797905
 C          2.0223090905       -0.4828927200       -0.2100271431
 C          3.3401345251       -0.5401734883       -0.6550922663
 C          4.0764139631        0.6217265658       -0.8181597808
 C          3.5003763146        1.8507240688       -0.5377442262
 C          2.1889407531        1.9176519990       -0.0936527575
 C          1.4398143113        0.7586270272        0.0741834999
 C          0.0442014241        0.8598897414        0.5506810822
 O         -0.4565993028        1.9518242525        0.8075766090
 H         -4.5429110271       -0.3422475209       -2.1751437735
 H         -4.2204416673        1.3616455704       -2.5239393622
 H         -5.6033765620        0.9198596683       -1.5294012372
 H         -2.7257620666        2.4684323373        0.3384871988
 H         -4.2775452237        2.0772614677        1.0773193418
 H         -4.2289547718        2.8580974270       -0.5026585507
 H         -3.0544124482       -1.1896812843       -0.6249026795
 H         -2.4259873519       -1.0655941713        1.8168036235
 H         -2.2509252043        0.6882615391        1.6804358144
 H         -1.6797623538       -2.6653679161        0.8574257786
 H          3.7659466471       -1.5095326929       -0.8665772456
 H          5.0965814525        0.5663967373       -1.1631088648
 H          4.0699611861        2.7577706665       -0.6637665576
 H          1.7217063832        2.8647432900        0.1313700156
  32
 Etot=  -51.4237410918 g norm=  0.00032056
 C         -4.9829927769        0.0648933526        1.7245927466
 C         -4.1361669700        0.2162161329        0.4958459520
 C         -4.8851396564        0.0423854153       -0.7902509030
 C         -2.8413414190        0.5081247239        0.5892457449
 C         -1.8836739137        0.7457541347       -0.5459970322
 C         -0.4801490484        0.2979274795       -0.2287975633
 C         -0.2175327111       -0.9492186731        0.2416283566
 O         -1.1525630933       -1.8777716249        0.4686176973
 C          1.1589420776       -1.4245252395        0.5449054656
 O          1.3551883887       -2.5552854933        0.9650619053
 C          2.2448740223       -0.4638967278        0.3042112967
 C          3.5602625901       -0.8435272883        0.5565972045
 C          4.6011247407        0.0436812350        0.3365920735
 C          4.3347142735        1.3189481356       -0.1360526644
 C          3.0279789617        1.7066166294       -0.3891002948
 C          1.9752127419        0.8246514172       -0.1742482740
 C          0.5920809540        1.2642708375       -0.4562999129
 O          0.3597216537        2.3985364512       -0.8690037283
 H         -5.4032026895       -0.9384968992        1.7730517059
 H         -5.8136555394        0.7677042081        1.6912758926
 H         -4.4079904611        0.2468435305        2.6281964586
 H         -5.4852933428        0.9309939221       -0.9823942229
 H         -5.5639059804       -0.8048779804       -0.7166614599
 H         -4.2278411703       -0.1061617774       -1.6412287345
 H         -2.4077832896        0.6517451048        1.5716789417
 H         -1.8349547797        1.8172870791       -0.7664248823
 H         -2.2226680037        0.2463852872       -1.4574174797
 H         -2.0511637063       -1.5197571309        0.3321696282
 H          3.7414246333       -1.8418322757        0.9257795129
 H          5.6164814556       -0.2608497914        0.5344417516
 H          5.1418281258        2.0132300163       -0.3078977182
 H          2.7982835827        2.6956498448       -0.7565843975
  32
 Etot=  -51.4239382142 g norm=  0.00028463
 C         -4.3504583493        1.1695235821        1.9292551258
 C         -3.5479956434        1.0612263676        0.6679338184
 C         -3.4962534196        2.3078486599       -0.1677907430
 C         -2.9562377758       -0.0778930865        0.3261336852
 C         -2.1280089166       -0.3020034128       -0.9132838527
 C         -0.6741425167       -0.4244331139       -0.5270543272
 C         -0.1522540473       -1.5753648693       -0.0292243329
 O         -0.8414907247       -2.7122252544        0.1299365035
 C          1.2677676145       -1.7034729587        0.3922463385
 O          1.7036787755       -2.7642719917        0.8153540024
 C          2.0951242994       -0.4962395516        0.2639531144
 C          3.4322418180       -0.5403734658        0.6489736082
 C          4.2324456195        0.5845823596        0.5349288682
 C          3.7012871090        1.7632901295        0.0356743008
 C          2.3708195483        1.8169210479       -0.3496632212
 C          1.5577796618        0.6944950281       -0.2408069487
 C          0.1428715222        0.7805537045       -0.6597153026
 O         -0.3195620642        1.8273024112       -1.1068385740
 H         -5.3668125297        1.4834391002        1.6965825204
 H         -3.9122917779        1.9217744465        2.5840428723
 H         -4.3873245651        0.2226888431        2.4613217528
 H         -3.8533798136        3.1609578525        0.4021893807
 H         -4.1262947716        2.2008371480       -1.0501595198
 H         -2.4813897271        2.5155305112       -0.5021548875
 H         -3.0266720683       -0.9260859384        0.9948005166
 H         -2.2280250650        0.5441231569       -1.5909002927
 H         -2.4687796590       -1.1998706056       -1.4350933947
 H         -1.7570379807       -2.6287776476       -0.1872845335
 H          3.8220905287       -1.4707427671        1.0341059407
 H          5.2672514936        0.5395719176        0.8347965633
 H          4.3207658399        2.6412818376       -0.0552329338
 H          1.9379197186        2.7250780355       -0.7415734315
  32
 Etot=  -51.4237126267 g norm=  0.00037724
 C         -4.8608403165        0.1303935071        1.9163857278
 C         -4.0410301768        0.1278725254        0.6600702969
 C         -4.7857874365       -0.3387635061       -0.5533704944
 C         -2.7742977823        0.5359919243        0.6719122379
 C         -1.8413506015        0.6488576948       -0.5020964396
 C         -0.4224857783        0.2746583576       -0.1564947553
 C         -0.1258860417       -0.8884640030        0.4797405894
 O         -1.0389716096       -1.7905397882        0.8545798118
 C          1.2648214424       -1.2902338171        0.8215997122
 O          1.4903454380       -2.3398635311        1.4055516499
 C          2.3271846227       -0.3598102022        0.4144294309
 C          3.6548929800       -0.6789672339        0.6853682889
 C          4.6740308884        0.1810511457        0.3102390927
 C          4.3734264870        1.3689068117       -0.3373730293
 C          3.0542057517        1.6963522217       -0.6098384755
 C          2.0228763242        0.8408214318       -0.2398395600
 C          0.6255018033        1.2163688519       -0.5433617716
 O          0.3621830467        2.2785148732       -1.1032087501
 H         -5.2207200305       -0.8735411879        2.1363365815
 H         -5.7322611881        0.7707364085        1.7890669311
 H         -4.2858817954        0.4899748449        2.7652887311
 H         -5.5258369655        0.4097587790       -0.8339284356
 H         -5.3195646913       -1.2611851887       -0.3316607633
 H         -4.1369279642       -0.5053852842       -1.4072664660
 H         -2.3477292409        0.8827663456        1.6055372334
 H         -1.8207365440        1.6857108949       -0.8536385114
 H         -2.1810130579        0.0326709274       -1.3382870907
 H         -1.9458748495       -1.4631981889        0.6920105392
 H          3.8629710665       -1.6090867206        1.1925043349
 H          5.6991145164       -0.0763084058        0.5241320259
 H          5.1636014935        2.0412880483       -0.6315584415
 H          2.7978538210        2.6168256289       -1.1128573398
  32
 Etot=  -51.4237524248 g norm=  0.00031940
 C         -5.0584952005        0.2846974399        1.7650563087
 C         -4.1870716780        0.5030315572        0.5673019486
 C         -4.8990292613        0.7878994169       -0.7233578915
 C         -2.8611192543        0.4466498160        0.6452738803
 C         -1.9368956150        0.6833681845       -0.5211134084
 C         -0.5257345395        0.2374640743       -0.2495554667
 C         -0.2420304297       -1.0388806277        0.1192881168
 O         -1.1625810325       -1.9986624841        0.2640216608
 C          1.1401364793       -1.5121475323        0.3960031919
 O          1.3558531792       -2.6718393188        0.7159690622
 C          2.2069739189       -0.5099766999        0.2637150490
 C          3.5248553965       -0.8790349561        0.5186562736
 C          4.5479499537        0.0476454150        0.4025658828
 C          4.2611900044        1.3514590187        0.0303291820
 C          2.9519948939        1.7281936789       -0.2265576403
 C          1.9166464867        0.8074762754       -0.1135211858
 C          0.5302727018        1.2371219735       -0.3949838816
 O          0.2819923081        2.3909630241       -0.7381923402
 H         -4.4680621392        0.0549991519        2.6475826478
 H         -5.7505473271       -0.5352447290        1.5798171969
 H         -5.6489628278        1.1778165465        1.9634441477
 H         -4.7805060889       -0.0393334875       -1.4226260663
 H         -4.4929548230        1.6808362731       -1.1956138846
 H         -5.9610204135        0.9365207552       -0.5501802191
 H         -2.3828858627        0.2727922722        1.6005744280
 H         -1.9001916044        1.7530952678       -0.7539129987
 H         -2.3204609805        0.1776425294       -1.4132746412
 H         -2.0637789199       -1.6541316060        0.1273063869
 H          3.7220121000       -1.9006253373        0.8071549294
 H          5.5652420124       -0.2485011022        0.6030019580
 H          5.0544833514        2.0763371030       -0.0607243636
 H          2.7068451177        2.7385436800       -0.5182841141
  32
 Etot=  -51.4237242600 g norm=  0.00035564
 C         -4.8958932033        0.3973381985        1.8309847357
 C         -4.0724731988        0.2315483883        0.5881909959
 C         -4.8173729925       -0.3746856399       -0.5618107559
 C         -2.8022836585        0.6273975837        0.5538621785
 C         -1.8647419408        0.5799837160       -0.6207782602
 C         -0.4488733443        0.2505576560       -0.2214987348
 C         -0.1589455119       -0.8187396795        0.5648275371
 O         -1.0763491327       -1.6601035667        1.0534376357
 C          1.2294665463       -1.1782168786        0.9592985336
 O          1.4503823265       -2.1511987816        1.6649172107
 C          2.2955352560       -0.3037869699        0.4503047727
 C          3.6201206204       -0.5809009367        0.7771658562
 C          4.6423852693        0.2288376528        0.3100214610
 C          4.3482183341        1.3230471998       -0.4879899328
 C          3.0322416571        1.6074658043       -0.8183790671
 C          1.9977327322        0.8020708750       -0.3562288553
 C          0.6039850001        1.1296860494       -0.7249116420
 O          0.3471838150        2.1041428326       -1.4287592670
 H         -4.3257930879        0.8714062000        2.6251706525
 H         -5.2484625172       -0.5710364465        2.1829000771
 H         -5.7717487004        1.0077483440        1.6173260011
 H         -4.1627742485       -0.6849642711       -1.3699767298
 H         -5.5214954196        0.3542118518       -0.9611914229
 H         -5.3911826369       -1.2350539642       -0.2231713181
 H         -2.3756091769        1.0867177571        1.4374783537
 H         -1.8389789598        1.5600927895       -1.1083251265
 H         -2.2037913059       -0.1415720395       -1.3682527269
 H         -1.9820005918       -1.3521937635        0.8507561738
 H          3.8232829551       -1.4383299935        1.4009815729
 H          5.6649744831        0.0050274397        0.5689118299
 H          5.1408843812        1.9558910304       -0.8543279994
 H          2.7809035717        2.4553646116       -1.4379736212
  32
 Etot=  -51.4237702820 g norm=  0.00028452
 C         -5.0784831399        0.4708381249        1.6130405483
 C         -4.1886807134        0.6022475050        0.4164271246
 C         -4.8802062319        0.7897668868       -0.9027894898
 C         -2.8639060870        0.5599565483        0.5193654010
 C         -1.9223281173        0.7138835968       -0.6462359261
 C         -0.5188164485        0.2730045555       -0.3303378392
 C         -0.2527533843       -0.9751366211        0.1355222010
 O         -1.1852603097       -1.9102270784        0.3485188226
 C          1.1227426492       -1.4437664725        0.4514816607
 O          1.3230571642       -2.5801762853        0.8543805623
 C          2.2023614444       -0.4670649411        0.2503069690
 C          3.5144989768       -0.8316144448        0.5391167941
 C          4.5494284087        0.0712998442        0.3590724697
 C          4.2804951563        1.3466236768       -0.1118945270
 C          2.9771301874        1.7187438261       -0.4028330554
 C          1.9299536097        0.8217573715       -0.2259619463
 C          0.5499396452        1.2460564051       -0.5447803073
 O          0.3175403578        2.3732544265       -0.9764868028
 H         -5.7632866396       -0.3654001076        1.4797735192
 H         -5.6768091841        1.3729998178        1.7326818893
 H         -4.5015683474        0.3125723249        2.5202702719
 H         -4.5054371686        1.6791600854       -1.4064506366
 H         -5.9518956675        0.8939140929       -0.7628736816
 H         -4.7020078062       -0.0606186788       -1.5599815168
 H         -2.4004331343        0.4628575944        1.4920483559
 H         -1.8721361566        1.7661043043       -0.9463060916
 H         -2.2989257234        0.1559029648       -1.5098006228
 H         -2.0828138105       -1.5650429717        0.1887607842
 H          3.6979109171       -1.8310061216        0.9042497079
 H          5.5620857347       -0.2209886024        0.5867672697
 H          5.0830375776        2.0531109465       -0.2528094531
 H          2.7456458644        2.7072052215       -0.7709493036
  32
 Etot=  -51.4236772243 g norm=  0.00073910
 C         -5.1146069745       -0.2512356193        1.3953928031
 C         -4.2074121181        0.3339502983        0.3582752553
 C         -4.8729956430        1.1018362465       -0.7463420207
 C         -2.8877870025        0.1852577873        0.4140287759
 C         -1.9349486061        0.7773694353       -0.5920371531
 C         -0.5268793472        0.2732178642       -0.4314473390
 C         -0.2281717344       -1.0487830932       -0.5237298683
 O         -1.1280571406       -2.0070864103       -0.7709080179
 C          1.1529000318       -1.5779062472       -0.3660374599
 O          1.3842916357       -2.7732013284       -0.4725900565
 C          2.1986018986       -0.5859371867       -0.0787906427
 C          3.5124661977       -1.0110415837        0.0980300728
 C          4.5155710659       -0.0953376663        0.3704175056
 C          4.2130512502        1.2537004525        0.4668272000
 C          2.9079312339        1.6867820863        0.2909628643
 C          1.8923625090        0.7774518965        0.0187814155
 C          0.5097581874        1.2679345547       -0.1638372713
 O          0.2488519799        2.4669999901       -0.0938126133
 H         -5.8291144419       -0.9281254710        0.9286722848
 H         -5.6793737589        0.5410695540        1.8848938924
 H         -4.5535637689       -0.7969525402        2.1494100283
 H         -5.9479869165        1.1362184145       -0.5986385409
 H         -4.6724052598        0.6449463142       -1.7145538795
 H         -4.4920853559        2.1216010373       -0.7815668282
 H         -2.4372038838       -0.3473763372        1.2407487310
 H         -1.9064292242        1.8660136638       -0.4767473360
 H         -2.2897405716        0.5772988116       -1.6087705337
 H         -2.0315851775       -1.6498025333       -0.8356555069
 H          3.7223868342       -2.0670507073        0.0174604522
 H          5.5297701935       -0.4353445645        0.5068579886
 H          4.9909101617        1.9700867742        0.6785375420
 H          2.6505903787        2.7331390092        0.3612190065
  32
 Etot=  -51.4239167536 g norm=  0.00029065
 C         -4.2913008511        1.5389965335        1.7962617217
 C         -3.5681128122        1.1545502465        0.5413684449
 C         -3.6441917524        2.1525388211       -0.5779682533
 C         -2.9278490374       -0.0053368850        0.4448967850
 C         -2.1666928424       -0.4930892922       -0.7611222314
 C         -0.6993783781       -0.5474142895       -0.4184407278
 C         -0.1359855344       -1.6107796077        0.2113569350
 O         -0.7900979051       -2.7293939374        0.5505765731
 C          1.3011933417       -1.6544735338        0.5905811675
 O          1.7825856010       -2.6489873713        1.1144184606
 C          2.0877468810       -0.4476327969        0.3004908084
 C          3.4312256140       -0.4043392893        0.6628338652
 C          4.1919399043        0.7234721332        0.4020037229
 C          3.6154573833        1.8171806415       -0.2245008893
 C          2.2793290371        1.7820634341       -0.5920582838
 C          1.5052897719        0.6562858285       -0.3347796577
 C          0.0836003077        0.6457083804       -0.7384889601
 O         -0.4133268695        1.6049243900       -1.3232237697
 H         -5.3424839701        1.7224018940        1.5776947551
 H         -3.8700480400        2.4594799652        2.1986087836
 H         -4.2189110486        0.7611986529        2.5523510736
 H         -4.2564430945        1.7689860522       -1.3929998386
 H         -2.6518630582        2.3658885145       -0.9723280697
 H         -4.0848165938        3.0816759728       -0.2287777661
 H         -2.8977147953       -0.6642999415        1.3032936630
 H         -2.2964046176        0.1986855322       -1.5914545831
 H         -2.5364840545       -1.4737663640       -1.0703574617
 H         -1.7206736459       -2.7121109570        0.2678334230
 H          3.8567746334       -1.2688322693        1.1505800838
 H          5.2315778146        0.7470144781        0.6874889821
 H          4.2038495519        2.6975954439       -0.4285248179
 H          1.8108600761        2.6230560105       -1.0806444232
  32
 Etot=  -51.4237311099 g norm=  0.00045357
 C         -5.1494203045       -0.4386289786        1.1729287807
 C         -4.2260349560        0.2482051824        0.2153166658
 C         -4.8819254542        0.9762533686       -0.9225026738
 C         -2.9056583206        0.2129757916        0.3683179348
 C         -1.9276468815        0.9051226518       -0.5443855700
 C         -0.5279200953        0.3659130444       -0.4213948684
 C         -0.2575159007       -0.9553078502       -0.5852061077
 O         -1.1826203760       -1.8798170622       -0.8661070953
 C          1.1150062492       -1.5182018042       -0.4817097743
 O          1.3210678971       -2.7101034315       -0.6567023661
 C          2.1849832786       -0.5626011444       -0.1620214373
 C          3.4929054750       -1.0213052065       -0.0315420875
 C          4.5184920507       -0.1405558512        0.2707043556
 C          4.2445191606        1.2069199461        0.4438034911
 C          2.9454154690        1.6733117869        0.3149975860
 C          1.9075351024        0.7991975854        0.0132313814
 C          0.5317707169        1.3246947977       -0.1166799645
 O          0.2947230307        2.5221365551        0.0276228792
 H         -5.7987772426        0.2924620885        1.6526659316
 H         -4.5974201446       -0.9715497676        1.9425338433
 H         -5.7835906028       -1.1450512294        0.6392039208
 H         -5.9581153748        1.0146866245       -0.7813049455
 H         -4.6809993737        0.4766601663       -1.8700906588
 H         -4.5024237484        1.9937002217       -0.9966350984
 H         -2.4747245726       -0.2928226202        1.2223446181
 H         -1.8854755661        1.9726326672       -0.3023994104
 H         -2.2622920460        0.8271074835       -1.5835453059
 H         -2.0798038843       -1.4980008745       -0.8714304619
 H          3.6806076912       -2.0751693476       -0.1725326057
 H          5.5280175015       -0.5062955226        0.3697809458
 H          5.0397972667        1.8961823727        0.6792908254
 H          2.7100495677        2.7190752581        0.4454035525
  32
 Etot=  -51.4236924840 g norm=  0.00042721
 C         -5.1135398687       -0.1647399030        1.3765017113
 C         -4.2006263633        0.3768718583        0.3208847393
 C         -4.8583603548        1.1118581995       -0.8104504823
 C         -2.8829831870        0.2138370648        0.3799675611
 C         -1.9259859234        0.7584753477       -0.6490432336
 C         -0.5179523646        0.2643398352       -0.4597305978
 C         -0.2167497388       -1.0599594041       -0.4910168602
 O         -1.1144252486       -2.0297079777       -0.6983156794
 C          1.1645508854       -1.5790907756       -0.3049797635
 O          1.3976429035       -2.7778179813       -0.3541781960
 C          2.2083256795       -0.5730958154       -0.0630145425
 C          3.5231618245       -0.9871477064        0.1315809140
 C          4.5245733319       -0.0581621710        0.3619546833
 C          4.2192280272        1.2931854155        0.3985465986
 C          2.9130247095        1.7152579316        0.2048608595
 C          1.8992549124        0.7926617117       -0.0262309953
 C          0.5156749856        1.2717803320       -0.2307663431
 O          0.2518252779        2.4720676310       -0.2098943717
 H         -5.6658061672        0.6490729274        1.8443337242
 H         -4.5588946203       -0.6967435951        2.1447491927
 H         -5.8385458756       -0.8440640782        0.9303857382
 H         -4.4245052788        2.1042696621       -0.9231412810
 H         -5.9247422848        1.2149711114       -0.6343340549
 H         -4.7152666205        0.5828093609       -1.7520899792
 H         -2.4376808799       -0.2962584890        1.2235993008
 H         -1.8986935545        1.8514842306       -0.5855251893
 H         -2.2770090701        0.5096322755       -1.6563618871
 H         -2.0177252574       -1.6764461156       -0.7850298327
 H          3.7352692350       -2.0452302270        0.0978765244
 H          5.5398049510       -0.3895683119        0.5114371863
 H          4.9954984517        2.0199866584        0.5778092062
 H          2.6536297072        2.7631848684        0.2289098227
  32
 Etot=  -51.4239731084 g norm=  0.00021864
 C         -4.5711668183        0.4182733784       -1.8968224830
 C         -3.7357330837        0.6461584351       -0.6735940667
 C         -3.7793973556        2.0395283003       -0.1149137560
 C         -3.0306904393       -0.3388625374       -0.1287392157
 C         -2.1563303698       -0.2220427320        1.0933681274
 C         -0.7126858721       -0.3787166882        0.6850852999
 C         -0.1341296025       -1.5953888582        0.5126835283
 O         -0.7511919326       -2.7658178784        0.7183510907
 C          1.2782410047       -1.7636487715        0.0790801061
 O          1.7729161027       -2.8760897074       -0.0306143868
 C          2.0241763919       -0.5290505300       -0.1999770486
 C          3.3458397361       -0.6121138127       -0.6292065520
 C          4.0686794604        0.5378697197       -0.9006884047
 C          3.4752545791        1.7805555521       -0.7450516762
 C          2.1603803260        1.8733264887       -0.3160665405
 C          1.4246029390        0.7265145267       -0.0400949093
 C          0.0254036371        0.8550363108        0.4188463629
 O         -0.4887999074        1.9599981694        0.5725611240
 H         -4.5173212799       -0.6146674340       -2.2302436704
 H         -4.2294550697        1.0647264910       -2.7041806025
 H         -5.6103563340        0.6683183444       -1.6886420652
 H         -4.2785062082        2.7107921466       -0.8078235438
 H         -2.7741249484        2.4155411710        0.0686206384
 H         -4.3237561669        2.0564235816        0.8285344848
 H         -3.0330063728       -1.3124223327       -0.6017434165
 H         -2.4378570597       -0.9766500464        1.8320131156
 H         -2.2752068186        0.7602460964        1.5469532657
 H         -1.6640065691       -2.6481419496        1.0330336499
 H          3.7849393813       -1.5918917928       -0.7428422041
 H          5.0916573009        0.4624264239       -1.2332372565
 H          4.0343448226        2.6784395354       -0.9554839544
 H          1.6802823084        2.8317550759       -0.1866518277
  32
 Etot=  -51.4239607341 g norm=  0.00040761
 C         -4.4143940709        0.9110654056        1.9034857017
 C         -3.5806675087        0.9426089472        0.6582736967
 C         -3.5211309836        2.2707943342       -0.0396611274
 C         -2.9691875400       -0.1498813472        0.2140565445
 C         -2.1083292761       -0.2371948902       -1.0203474667
 C         -0.6631875977       -0.3883065515       -0.6122145309
 C         -0.1424163670       -1.5809837304       -0.2233593659
 O         -0.8248644474       -2.7326535636       -0.1973633974
 C          1.2692405763       -1.7427300876        0.2144551915
 O          1.7046406373       -2.8382489647        0.5380179862
 C          2.0892666323       -0.5237505318        0.2272127544
 C          3.4195301924       -0.5995098333        0.6305051344
 C          4.2124934038        0.5361554921        0.6491926653
 C          3.6809011808        1.7572793899        0.2657090515
 C          2.3571595274        1.8426080672       -0.1370142792
 C          1.5516262258        0.7098152472       -0.1611453789
 C          0.1445328010        0.8300466348       -0.5975805066
 O         -0.3189258440        1.9153844076       -0.9392489369
 H         -4.4571128085       -0.0876783915        2.3299420107
 H         -5.4270629284        1.2435491715        1.6805849945
 H         -3.9974373716        1.5906419379        2.6457564442
 H         -4.1309159090        2.2532828190       -0.9424126555
 H         -2.5006873560        2.5186107965       -0.3265670408
 H         -3.8981799925        3.0561986523        0.6092788696
 H         -3.0466666940       -1.0632560133        0.7894459386
 H         -2.2000588552        0.6741284570       -1.6086907601
 H         -2.4256589701       -1.0786427596       -1.6416186346
 H         -1.7355469752       -2.6230376381       -0.5207536106
 H          3.8100089561       -1.5623580570        0.9240666398
 H          5.2420200724        0.4664373732        0.9622739814
 H          4.2946682495        2.6439171344        0.2787377632
 H          1.9239393026        2.7840114813       -0.4403964275
  32
 Etot=  -51.4237461805 g norm=  0.00041637
 C         -4.9428276483       -0.0096659318        1.7765172014
 C         -4.1100531852        0.1171241029        0.5354450590
 C         -4.8691017035       -0.0996460219       -0.7381722748
 C         -2.8182290675        0.4263081882        0.6079413686
 C         -1.8728337323        0.6437340542       -0.5420902128
 C         -0.4613571989        0.2305980139       -0.2136984796
 C         -0.1755843428       -1.0083997498        0.2644882331
 O         -1.0929135305       -1.9563581176        0.4843831257
 C          1.2077141409       -1.4513515113        0.5844547631
 O          1.4269576695       -2.5808212859        0.9964452194
 C          2.2712913100       -0.4591785921        0.3735255811
 C          3.5895077304       -0.8000749037        0.6636224476
 C          4.6096487884        0.1175626540        0.4734574242
 C          4.3197430106        1.3839605609       -0.0091077976
 C          3.0100898620        1.7328135463       -0.3005867590
 C          1.9776399794        0.8209788925       -0.1134373202
 C          0.5902644758        1.2215258747       -0.4305367661
 O          0.3374676637        2.3454940343       -0.8590703933
 H         -4.3597626167        0.1996078981        2.6691951453
 H         -5.3547947568       -1.0147976718        1.8548814674
 H         -5.7793258452        0.6860940213        1.7343299299
 H         -5.4761088930        0.7794377073       -0.9519458599
 H         -5.5423168039       -0.9480236124       -0.6331111267
 H         -4.2177884685       -0.2701824137       -1.5897136590
 H         -2.3768110875        0.5998913661        1.5817945662
 H         -1.8438330198        1.7085049889       -0.7960302486
 H         -2.2086224254        0.1094318644       -1.4346770227
 H         -1.9970230870       -1.6180681102        0.3380536236
 H          3.7891495026       -1.7929346816        1.0379169332
 H          5.6272722655       -0.1566327314        0.7014663419
 H          5.1108332856        2.1014417646       -0.1590351363
 H          2.7622628420        2.7142677306       -0.6765059225
  32
 Etot=  -51.4239705224 g norm=  0.00028049
 C         -4.4975796980        0.5557573911       -1.8552690071
 C         -3.6171947921        0.8242617842       -0.6724852019
 C         -3.5548497391        2.2582029470       -0.2307598076
 C         -2.9670717307       -0.1602884170       -0.0618645891
 C         -2.0561917550       -0.0067550186        1.1292453914
 C         -0.6307726432       -0.2470588057        0.6968390885
 C         -0.1152111588       -1.4961437672        0.5598935619
 O         -0.7836959971       -2.6255329665        0.8259458253
 C          1.2763761892       -1.7501696899        0.1019425152
 O          1.7125448257       -2.8892504474        0.0203589557
 C          2.0753028235       -0.5649825367       -0.2382687696
 C          3.3813936301       -0.7287700699       -0.6914913336
 C          4.1541246007        0.3737423976       -1.0172614796
 C          3.6265047124        1.6492915795       -0.8927584995
 C          2.3272919328        1.8223040101       -0.4413428848
 C          1.5419526377        0.7237138032       -0.1110498383
 C          0.1609015431        0.9378300862        0.3699997839
 O         -0.2954768214        2.0718250905        0.4914125804
 H         -5.5102496524        0.8996065955       -1.6500619390
 H         -4.5274251801       -0.5030653753       -2.0982464250
 H         -4.1304008938        1.1033757360       -2.7222084805
 H         -4.0919912346        2.3926706763        0.7075144384
 H         -4.0070741244        2.9050083968       -0.9772992543
 H         -2.5244551864        2.5743612436       -0.0770911821
 H         -3.0482692343       -1.1659802559       -0.4537977730
 H         -2.3477839983       -0.7044897011        1.9182717034
 H         -2.1236039852        1.0046210916        1.5261692332
 H         -1.6801685709       -2.4484734090        1.1590910429
 H          3.7684969719       -1.7327442696       -0.7812168426
 H          5.1649490495        0.2360604736       -1.3667487067
 H          4.2252325594        2.5105010420       -1.1435640204
 H          1.8983661311        2.8075144816       -0.3344400880
  32
 Etot=  -51.4236857860 g norm=  0.00052173
 C         -5.0987074708       -0.7492275839        0.9558207076
 C         -4.2011293688        0.0999110150        0.1049772708
 C         -4.8903848898        0.7314130324       -1.0655723548
 C         -2.9174929782        0.2599804600        0.4171066070
 C         -1.9045711958        1.1112753947       -0.2983803018
 C         -0.5228999457        0.5087978867       -0.2836261682
 C         -0.3008282412       -0.7789138135       -0.6553967286
 O         -1.2607482105       -1.6187231631       -1.0571104375
 C          1.0532202484       -1.3942914654       -0.6663108719
 O          1.2123085439       -2.5573510470       -1.0062782938
 C          2.1643518992       -0.5247676315       -0.2547115151
 C          3.4612566376       -1.0307389638       -0.2497672647
 C          4.5250162827       -0.2306878614        0.1338673633
 C          4.3003072339        1.0821927866        0.5166631416
 C          3.0122905845        1.5947528684        0.5159257982
 C          1.9367128812        0.8021423099        0.1320988186
 C          0.5740018714        1.3755024777        0.1413054299
 O          0.3778610780        2.5371664672        0.4921250888
 H         -4.5516522196       -1.2090607441        1.7742223412
 H         -5.5588212536       -1.5327848295        0.3560121693
 H         -5.9003812288       -0.1409466053        1.3719604108
 H         -5.3916528216       -0.0313477822       -1.6593908323
 H         -4.2107070155        1.2848879356       -1.7050328706
 H         -5.6536726405        1.4204137663       -0.7068791339
 H         -2.5357518397       -0.2195760271        1.3104770522
 H         -1.8320981595        2.0869885046        0.1936773611
 H         -2.2028945036        1.2938682780       -1.3338025025
 H         -2.1455406760       -1.2127578068       -0.9665533601
 H          3.6099454470       -2.0568801207       -0.5507862856
 H          5.5256808330       -0.6325542658        0.1344345345
 H          5.1254512993        1.7085580883        0.8162679145
 H          2.8150800599        2.6148139787        0.8102376038
  32
 Etot=  -51.4237191604 g norm=  0.00043843
 C         -4.9596797557        0.2139848122        1.7169643395
 C         -4.1112358283        0.1655877169        0.4808947664
 C         -4.8275251828       -0.3456271837       -0.7317292017
 C         -2.8453346888        0.5759931632        0.5064666574
 C         -1.8853364769        0.6441646260       -0.6487215597
 C         -0.4761156107        0.2782197810       -0.2575357540
 C         -0.1990290103       -0.8569590680        0.4355166411
 O         -1.1244175822       -1.7367871422        0.8325145906
 C          1.1827249931       -1.2518906735        0.8193281252
 O          1.3914737950       -2.2809709402        1.4446057284
 C          2.2576175611       -0.3413170841        0.4003190083
 C          3.5771986912       -0.6513345915        0.7176847204
 C          4.6077959101        0.1907919203        0.3335900164
 C          4.3269253215        1.3510334337       -0.3705154685
 C          3.0159934316        1.6688557668       -0.6901875154
 C          1.9732687229        0.8312269084       -0.3113466306
 C          0.5850420972        1.1958253297       -0.6659088453
 O          0.3394327631        2.2307762328       -1.2819639670
 H         -5.8259654754        0.8513439612        1.5471211000
 H         -4.4034504926        0.6017610675        2.5659053495
 H         -5.3274671229       -0.7808062146        1.9634337556
 H         -5.3809818137       -1.2496714321       -0.4850005695
 H         -4.1565771664       -0.5592672472       -1.5575738644
 H         -5.5474810471        0.3996726180       -1.0675326150
 H         -2.4406717128        0.9587589802        1.4358318228
 H         -1.8527580093        1.6673646621       -1.0374068371
 H         -2.2078720631       -0.0010017644       -1.4697400368
 H         -2.0262526444       -1.4104783653        0.6406554835
 H          3.7697470744       -1.5602427734        1.2676697151
 H          5.6264329878       -0.0591610922        0.5839791701
 H          5.1261146441        2.0092651105       -0.6721602065
 H          2.7751515526        2.5680523676       -1.2373984418
  32
 Etot=  -51.4250007198 g norm=  0.00017154
 C         -4.5561025199        0.3263225946        1.7155949286
 C         -3.3824205516        0.5551454625        0.8135174842
 C         -2.3947454199        1.5701745799        1.3044958146
 C         -3.2375118207       -0.1200566137       -0.3236761997
 C         -2.1056497158        0.0510002825       -1.3044667408
 C         -0.7301033205       -0.0767999383       -0.6964474910
 C         -0.3980833038       -1.1087644083        0.1220261360
 O         -1.2360298290       -2.0904089041        0.4715209837
 C          0.9548584672       -1.2632463062        0.7190467840
 O          1.2143489719       -2.2059466956        1.4521815332
 C          1.9411498816       -0.2310604264        0.3705297837
 C          3.2311259975       -0.3166940672        0.8867580349
 C          4.1780061457        0.6439476015        0.5715252535
 C          3.8421570247        1.6984624030       -0.2628973480
 C          2.5595949002        1.7930503232       -0.7805431075
 C          1.6010880916        0.8346738462       -0.4722226090
 C          0.2400926775        0.9629290213       -1.0344061264
 O         -0.0596412675        1.9144226158       -1.7531057938
 H         -4.2109634100        0.0441261248        2.7088285925
 H         -5.2072200589       -0.4541760391        1.3327164835
 H         -5.1336622001        1.2439708342        1.8151484003
 H         -1.8497630429        2.0312707149        0.4845930260
 H         -1.6701490493        1.0976808065        1.9693943097
 H         -2.9036433010        2.3491094850        1.8670020982
 H         -4.0091871809       -0.8192323707       -0.6172283001
 H         -2.1565213352        1.0403624069       -1.7706832498
 H         -2.2075560109       -0.6849046460       -2.1063385321
 H         -2.1339766577       -1.9317343067        0.1227868273
 H          3.4674961745       -1.1471780661        1.5348948844
 H          5.1750076312        0.5674941651        0.9754016382
 H          4.5762559689        2.4484569568       -0.5114649740
 H          2.2768010902        2.6075424349       -1.4306954078
  32
 Etot=  -51.4239594865 g norm=  0.00031827
 C         -4.4292000984        0.2560934290       -1.9421764653
 C         -3.5607878427        0.6860498004       -0.7987736277
 C         -3.4908684822        2.1682882045       -0.5686123523
 C         -2.9291194601       -0.2054815538       -0.0432099821
 C         -2.0328697636        0.1099064887        1.1270737466
 C         -0.5999990614       -0.1733242245        0.7472385921
 C         -0.0825893514       -1.4291390749        0.7589563053
 O         -0.7555909290       -2.5220473370        1.1402989098
 C          1.3152199951       -1.7314766299        0.3520917582
 O          1.7500077462       -2.8731072824        0.3993268564
 C          2.1232504399       -0.5890348084       -0.0956935784
 C          3.4385512895       -0.7993775978       -0.5004159655
 C          4.2199428217        0.2624658815       -0.9254340972
 C          3.6917169242        1.5435324059       -0.9499723331
 C          2.3830794513        1.7627640763       -0.5487687940
 C          1.5891873757        0.7054028423       -0.1192848750
 C          0.1977889517        0.9688020104        0.3041919819
 O         -0.2613379225        2.1082812075        0.2864247187
 H         -5.4389035310        0.6406296243       -1.8063265417
 H         -4.4727715181       -0.8266319845       -2.0252374823
 H         -4.0415212366        0.6630606309       -2.8753013730
 H         -2.4631777757        2.4937241996       -0.4173013459
 H         -4.0650518110        2.4442861426        0.3151878642
 H         -3.9008784259        2.7035037251       -1.4203471931
 H         -3.0162551201       -1.2560098850       -0.2886687114
 H         -2.3288482632       -0.4811923404        1.9974213750
 H         -2.1115937539        1.1637723701        1.3881890795
 H         -1.6543278214       -2.3086194298        1.4445821118
 H          3.8265771886       -1.8065021865       -0.4717943985
 H          5.2380263330        0.0889741469       -1.2356518802
 H          4.2964445688        2.3730407643       -1.2803346677
 H          1.9527354286        2.7530202007       -0.5597015418
  32
 Etot=  -51.4237458268 g norm=  0.00037411
 C         -5.0018961817       -0.0011064539        1.6774067044
 C         -4.1501549010        0.1694387809        0.4547113765
 C         -4.8916997811        0.0082391128       -0.8374595863
 C         -2.8578328700        0.4685721891        0.5579722415
 C         -1.8967540798        0.7292152113       -0.5693414475
 C         -0.4925140059        0.2855295154       -0.2496623697
 C         -0.2232734101       -0.9708266291        0.1915555201
 O         -1.1514595391       -1.9144578145        0.3818827499
 C          1.1538610786       -1.4401682902        0.5015022997
 O          1.3565109236       -2.5811168870        0.8896743491
 C          2.2319689954       -0.4600634634        0.3093131798
 C          3.5466007776       -0.8296473366        0.5799339412
 C          4.5798667522        0.0766813427        0.4074023965
 C          4.3067027286        1.3607931373       -0.0365849929
 C          3.0007563005        1.7382703173       -0.3083519996
 C          1.9554376800        0.8375048562       -0.1400318057
 C          0.5728409549        1.2676485839       -0.4383626217
 O          0.3351405021        2.4079521901       -0.8308877022
 H         -5.4269405343       -1.0033085719        1.7060424136
 H         -5.8293156068        0.7061555967        1.6538454746
 H         -4.4294449688        0.1620843782        2.5863230771
 H         -4.2294270731       -0.1424144558       -1.6842640682
 H         -5.4822504126        0.9031451623       -1.0301695136
 H         -5.5784214119       -0.8331228151       -0.7729954500
 H         -2.4290900763        0.5998992064        1.5441292038
 H         -1.8534989855        1.8043987310       -0.7724022838
 H         -2.2287381560        0.2427914951       -1.4900821395
 H         -2.0519277347       -1.5636615467        0.2416523684
 H          3.7331776247       -1.8353506970        0.9255498958
 H          5.5946554740       -0.2198742918        0.6196941955
 H          5.1080318759        2.0696088392       -0.1723865816
 H          2.7658312330        2.7335897268       -0.6549739226
  32
 Etot=  -51.4229859658 g norm=  0.00019869
 C         -4.8601560175        0.5441203543       -1.8076669885
 C         -4.0320791825        0.7114512754       -0.5709372285
 C         -4.5840397861        1.6442053158        0.4678633938
 C         -2.8842238028        0.0646786413       -0.4070591731
 C         -2.0060252422        0.1855258945        0.8134595694
 C         -0.5672988239       -0.1123031654        0.4900137118
 C         -0.1314835711       -1.3746224636        0.2434868256
 O         -0.9093601150       -2.4626242251        0.2877020929
 C          1.2805244628       -1.6881383885       -0.1044520226
 O          1.6388127060       -2.8403267368       -0.2975648886
 C          2.1940419338       -0.5414096247       -0.2032437287
 C          3.5256132975       -0.7572831997       -0.5474978624
 C          4.4057628839        0.3077001465       -0.6482310944
 C          3.9617515927        1.5975047129       -0.4039769839
 C          2.6380856381        1.8222180290       -0.0587832125
 C          1.7448326309        0.7621392426        0.0436933253
 C          0.3393298152        1.0318176745        0.4148831334
 O         -0.0444891213        2.1744415012        0.6531059961
 H         -4.3972322061       -0.1500391893       -2.5040707805
 H         -4.9844864312        1.5061155287       -2.3029645754
 H         -5.8506297022        0.1740179833       -1.5468210820
 H         -3.8732459358        2.4428810793        0.6787491836
 H         -4.7727666921        1.1149624506        1.4003988517
 H         -5.5136438519        2.0907749966        0.1279518051
 H         -2.5211092865       -0.5891453054       -1.1889183784
 H         -2.3678379083       -0.4787836046        1.6060746025
 H         -2.0533408104        1.2060741677        1.1986537840
 H         -1.8278852817       -2.2458619529        0.5237732065
 H          3.8474199147       -1.7711737211       -0.7322900132
 H          5.4346581961        0.1295046956       -0.9173628583
 H          4.6433332458        2.4295384359       -0.4817335054
 H          2.2717065490        2.8187663103        0.1383199418
  32
 Etot=  -51.4237278746 g norm=  0.00031843
 C         -4.8401619579        0.1801834829       -1.7977601294
 C         -4.0051264884        0.0950798445       -0.5545857562
 C         -4.7304454858       -0.4631166180        0.6315496785
 C         -2.7422858328        0.5149880436       -0.5513476477
 C         -1.7953033496        0.5462930914        0.6163475960
 C         -0.3747437621        0.2344043228        0.2199449617
 C         -0.0638869277       -0.8636122481       -0.5172613214
 O         -0.9628540872       -1.7519984580       -0.9539865575
 C          1.3293495078       -1.2027455128       -0.9129007007
 O          1.5681515414       -2.1954307147       -1.5845537420
 C          2.3776522081       -0.2833237411       -0.4482326854
 C          3.7067785576       -0.5456337151       -0.7687215799
 C          4.7125642172        0.3065664512       -0.3432378045
 C          4.3970594260        1.4295337683        0.4051291494
 C          3.0763079401        1.6998872394        0.7281782316
 C          2.0583592545        0.8511879858        0.3088152543
 C          0.6591904633        1.1633821881        0.6703003240
 O          0.3828326072        2.1655536577        1.3262013353
 H         -5.7215495599        0.7918102015       -1.6118060444
 H         -5.1840464906       -0.8104896571       -2.0913263097
 H         -4.2819997891        0.6150021861       -2.6222694231
 H         -4.0657489938       -0.7079039260        1.4538165247
 H         -5.2816276355       -1.3570345926        0.3459313975
 H         -5.4533490684        0.2684598056        0.9905071588
 H         -2.3306288610        0.9346242636       -1.4614623259
 H         -2.1100550866       -0.1480966314        1.3993885980
 H         -1.7908250447        1.5484094067        1.0577382973
 H         -1.8743553183       -1.4613971718       -0.7529844491
 H          3.9265700304       -1.4261623464       -1.3535334109
 H          5.7389730404        0.0931804730       -0.5957249050
 H          5.1767573432        2.0957958456        0.7385481539
 H          2.8085239227        2.5692810777        1.3099379030
  32
 Etot=  -51.4237141547 g norm=  0.00030593
 C         -4.9937300583       -0.0952497379        1.7518736127
 C         -4.1629598084        0.2622108448        0.5557087505
 C         -4.9474712348        0.4539566530       -0.7062743239
 C         -2.8458376944        0.4155266546        0.6572160598
 C         -1.9020261733        0.8238325152       -0.4420719602
 C         -0.5006026663        0.3190854056       -0.2178599465
 C         -0.2426258262       -0.9960848654        0.0047548543
 O         -1.1796551934       -1.9496475286        0.0393943607
 C          1.1303204017       -1.5233964010        0.2273261450
 O          1.3229860329       -2.7151308938        0.4174614624
 C          2.2168509651       -0.5339603543        0.2042512866
 C          3.5272177880       -0.9542719675        0.4148026933
 C          4.5680684954       -0.0403403977        0.4007874139
 C          4.3071350946        1.3018703379        0.1747173509
 C          3.0057230557        1.7299276191       -0.0370094330
 C          1.9525942915        0.8225603983       -0.0241574359
 C          0.5746435336        1.3080760635       -0.2501328426
 O          0.3483885722        2.4984023438       -0.4569612675
 H         -5.5081862989       -1.0404988176        1.5852965200
 H         -5.7525950240        0.6675995749        1.9176516040
 H         -4.3841914930       -0.1816608644        2.6471734327
 H         -5.4375353118        1.4267264006       -0.6835028175
 H         -5.7225829260       -0.3053100451       -0.7854283131
 H         -4.3238381454        0.4158754013       -1.5941384356
 H         -2.3783350125        0.2965478392        1.6269836803
 H         -1.8452396253        1.9162861451       -0.4918240552
 H         -2.2616100204        0.4780712936       -1.4151999158
 H         -2.0765834195       -1.5751836850       -0.0452237484
 H          3.7045231339       -2.0049788654        0.5889239124
 H          5.5792562032       -0.3763607644        0.5660813840
 H          5.1143435166        2.0168252721        0.1628587714
 H          2.7801963465        2.7708197485       -0.2149922575
  32
 Etot=  -51.4239627922 g norm=  0.00026014
 C         -4.4686142742        1.0984124898        1.6454482910
 C         -3.6580422971        0.9421240786        0.3945206296
 C         -3.6654920870        2.1269978912       -0.5282938422
 C         -3.0059950512       -0.1858006312        0.1346234729
 C         -2.1610375537       -0.4522536918       -1.0847715038
 C         -0.7091697886       -0.5171702576       -0.6795043137
 C         -0.1565657556       -1.6360530005       -0.1434230878
 O         -0.8117658124       -2.7885377008        0.0449398751
 C          1.2642520651       -1.7085359029        0.2880782578
 O          1.7335236496       -2.7463079229        0.7323741275
 C          2.0512072620       -0.4763514657        0.1422633183
 C          3.3841638739       -0.4660073460        0.5437199531
 C          4.1461722022        0.6837196107        0.4159525187
 C          3.5810687376        1.8325627636       -0.1147589925
 C          2.2548574595        1.8314138335       -0.5181814524
 C          1.4797018706        0.6839599932       -0.3949399481
 C          0.0687592636        0.7110166199       -0.8349160703
 O         -0.4232111845        1.7296017600       -1.3141869764
 H         -5.5008384831        1.3349154318        1.3916098275
 H         -4.0762907168        1.9218291933        2.2409195415
 H         -4.4521945130        0.1936941892        2.2473707738
 H         -2.6555292063        2.3806692788       -0.8462681402
 H         -4.0992478459        2.9908712405       -0.0327641132
 H         -4.2554252146        1.9133150982       -1.4188386257
 H         -3.0334199154       -0.9876284051        0.8610031613
 H         -2.2752023930        0.3562139288       -1.8047442748
 H         -2.4740112009       -1.3839223891       -1.5632597171
 H         -1.7300668121       -2.7403257925       -0.2719519739
 H          3.8004442095       -1.3733983904        0.9551762566
 H          5.1772575540        0.6815713525        0.7316527031
 H          4.1699387983        2.7305349702       -0.2136525266
 H          1.7952716066        2.7158373280       -0.9331047236
  32
 Etot=  -51.4249407176 g norm=  0.00055626
 C         -4.8927091294       -0.6223173081        0.7491350393
 C         -3.6244667344        0.0546549098        0.3284653761
 C         -2.7457529741        0.5081648124        1.4546265505
 C         -3.3127957588        0.2094299912       -0.9559423319
 C         -2.0769074596        0.8930435601       -1.4821639756
 C         -0.7789143623        0.3702962626       -0.9167940041
 C         -0.5140263933       -0.9588367779       -0.8252145790
 O         -1.3576334179       -1.9218683469       -1.2109369043
 C          0.7621337665       -1.4919853680       -0.2796392733
 O          0.9471781624       -2.6959404571       -0.1760605720
 C          1.7693502248       -0.4951047669        0.1099961650
 C          3.0077672483       -0.9224300813        0.5804979977
 C          3.9736536613       -0.0009254721        0.9506540098
 C          3.7068892927        1.3558342948        0.8575892793
 C          2.4748575755        1.7909454339        0.3943557405
 C          1.4994632435        0.8758247134        0.0153906722
 C          0.1942956975        1.3672978281       -0.4746041955
 O         -0.0569342543        2.5704948217       -0.5051912725
 H         -4.6649814575       -1.4705236125        1.3930239875
 H         -5.4613822468       -0.9719030601       -0.1079748221
 H         -5.5120380312        0.0681145447        1.3197239331
 H         -2.0988023342        1.3291690274        1.1563514044
 H         -2.1145709884       -0.3152845718        1.7914452212
 H         -3.3520614039        0.8293184174        2.2984861028
 H         -4.0159255342       -0.1257828459       -1.7068535576
 H         -2.1125999617        1.9638262525       -1.2561584942
 H         -2.0484899074        0.7992057680       -2.5710240129
 H         -2.2129673618       -1.5481177708       -1.4991429652
 H          3.1903890003       -1.9845405651        0.6457667224
 H          4.9309671317       -0.3424618704        1.3108177665
 H          4.4557494755        2.0766887722        1.1450394740
 H          2.2456541380        2.8432666550        0.3162348111
  32
 Etot=  -51.4239627577 g norm=  0.00034532
 C         -4.4738473059        1.2275969148        1.7238128753
 C         -3.6797109030        0.9598660106        0.4814148395
 C         -3.7137140671        2.0504027868       -0.5504572848
 C         -3.0185997358       -0.1811126079        0.3205264958
 C         -2.1876523329       -0.5538085082       -0.8805542188
 C         -0.7305195046       -0.5685011119       -0.4896818198
 C         -0.1575765782       -1.6303248850        0.1340449842
 O         -0.7949938702       -2.7701133057        0.4301495872
 C          1.2690826510       -1.6483262368        0.5522922367
 O          1.7578427489       -2.6397082661        1.0744687599
 C          2.0364613150       -0.4215845256        0.2975840891
 C          3.3716886382       -0.3581398464        0.6862830756
 C          4.1150884548        0.7880090623        0.4571808155
 C          3.5289642441        1.8802477710       -0.1627349989
 C          2.2004645098        1.8257747591       -0.5547371345
 C          1.4438926332        0.6812514749       -0.3302121298
 C          0.0300126222        0.6505695762       -0.7602061288
 O         -0.4781485125        1.6153891348       -1.3259059119
 H         -4.0817143448        2.1083854473        2.2308810993
 H         -4.4381738310        0.3852339552        2.4096330605
 H         -5.5123420796        1.4284440145        1.4648415491
 H         -4.1560413535        2.9515439283       -0.1354756929
 H         -4.3078635223        1.7438497541       -1.4105646539
 H         -2.7104366066        2.2868497615       -0.9009010191
 H         -3.0266429440       -0.9107668012        1.1201000331
 H         -2.3185335829        0.1830700407       -1.6709686578
 H         -2.4980058756       -1.5282659242       -1.2660311320
 H         -1.7175948971       -2.7619608501        0.1222705012
 H          3.8051676299       -1.2224453421        1.1667625514
 H          5.1487766493        0.8267021610        0.7617525552
 H          4.1041042092        2.7745649992       -0.3429888530
 H          1.7252283533        2.6649615754       -1.0403717255
  32
 Etot=  -51.4236797151 g norm=  0.00039132
 C         -4.9988050841       -0.6738476475        1.4975972305
 C         -4.1467425576       -0.0303385522        0.4442331882
 C         -4.8863446307        0.3278362561       -0.8085614491
 C         -2.8551414160        0.2056142783        0.6604716626
 C         -1.8889198953        0.8837889567       -0.2717543865
 C         -0.4874861892        0.3430272053       -0.1490566354
 C         -0.2290235285       -0.9892598784       -0.2122444277
 O         -1.1673459903       -1.9265143053       -0.3835388190
 C          1.1443891277       -1.5512771350       -0.1109889884
 O          1.3384760909       -2.7552777066       -0.1913241945
 C          2.2295550752       -0.5799049809        0.0866118607
 C          3.5395067501       -1.0352113699        0.2082200073
 C          4.5792020634       -0.1393583087        0.3961218803
 C          4.3175564103        1.2200056283        0.4620155634
 C          3.0165271308        1.6831290823        0.3415090133
 C          1.9645042503        0.7939332573        0.1543388731
 C          0.5866611458        1.3163514133        0.0335868285
 O          0.3597371096        2.5232270842        0.0873426100
 H         -4.4304110595       -0.8717788872        2.4021946560
 H         -5.4088844679       -1.6131781367        1.1291710600
 H         -5.8365267994       -0.0243209069        1.7460786426
 H         -5.5015149411        1.2083738975       -0.6258771369
 H         -5.5504241483       -0.4845816744       -1.0964172430
 H         -4.2222483646        0.5503782755       -1.6379769609
 H         -2.4304901676       -0.0584454147        1.6215258750
 H         -1.8409226281        1.9525239397       -0.0383041423
 H         -2.2182210786        0.7973735041       -1.3105611812
 H         -2.0634188530       -1.5364777660       -0.3683978620
 H          3.7174018615       -2.0987405434        0.1531062151
 H          5.5901031023       -0.5027684103        0.4902258915
 H          5.1238530995        1.9210974641        0.6076232277
 H          2.7905290690        2.7378979209        0.3899523323
  32
 Etot=  -51.4239714720 g norm=  0.00030349
 C         -4.5049355827        1.1088004642        1.5978156230
 C         -3.6912111189        0.9115182731        0.3548255443
 C         -3.7089190122        2.0594322902       -0.6132367441
 C         -3.0283687099       -0.2193544285        0.1396343111
 C         -2.1789180193       -0.5250715585       -1.0674456152
 C         -0.7274003969       -0.5580265551       -0.6568488567
 C         -0.1636595558       -1.6480820494       -0.0748197924
 O         -0.8052540804       -2.8002866790        0.1569955313
 C          1.2558192753       -1.6855618430        0.3659206331
 O          1.7348044204       -2.6983555486        0.8550704994
 C          2.0288604540       -0.4511334673        0.1733484673
 C          3.3596901164       -0.4085293620        0.5796086820
 C          4.1091354834        0.7435162767        0.4068614642
 C          3.5332234515        1.8627350635       -0.1732268663
 C          2.2087137581        1.8296485995       -0.5810056205
 C          1.4463427337        0.6792503348       -0.4135116385
 C          0.0369179287        0.6717974301       -0.8591194613
 O         -0.4642782911        1.6638467727       -1.3824916436
 H         -5.5389930499        1.3258165994        1.3342576299
 H         -4.1204402589        1.9582360191        2.1610681621
 H         -4.4808821469        0.2282968937        2.2344028237
 H         -2.7015018053        2.3079050716       -0.9428801138
 H         -4.1477379814        2.9387209182       -0.1504720994
 H         -4.2992292554        1.8070947616       -1.4933548631
 H         -3.0489379360       -0.9925194651        0.8967970601
 H         -2.3004210873        0.2526255300       -1.8192987386
 H         -2.4809669319       -1.4781600465       -1.5089924098
 H         -1.7218943202       -2.7777660173       -0.1674463954
 H          3.7850786171       -1.2937618035        1.0280713576
 H          5.1395085020        0.7657014852        0.7240207267
 H          4.1130669974        2.7617047654       -0.3097005848
 H          1.7415138237        2.6902847337       -1.0358732061
  32
 Etot=  -51.4237754424 g norm=  0.00025502
 C         -5.0901431621        0.5202589345        1.5932682862
 C         -4.1999127481        0.5807271314        0.3912038172
 C         -4.8930891943        0.6551548479       -0.9385412907
 C         -2.8746595294        0.5719587432        0.4986623109
 C         -1.9317003674        0.6598390178       -0.6725623026
 C         -0.5272371213        0.2419776312       -0.3298479488
 C         -0.2584754558       -0.9739487075        0.2133465728
 O         -1.1887415668       -1.8957436894        0.4856211501
 C          1.1181950165       -1.4188520278        0.5571568664
 O          1.3208514430       -2.5263096339        1.0327842040
 C          2.1961643412       -0.4559179213        0.2909950637
 C          3.5095958616       -0.8003126898        0.5981962819
 C          4.5431139296        0.0898737743        0.3569397994
 C          4.2714617423        1.3320299862       -0.1944633709
 C          2.9668144770        1.6838115826       -0.5042070443
 C          1.9210269396        0.7994432280       -0.2661902058
 C          0.5395296743        1.2012215617       -0.6070017735
 O          0.3042223035        2.2998790656       -1.1054834246
 H         -5.7585102579       -0.3367005903        1.5216200129
 H         -5.7057677037        1.4171781282        1.6450202796
 H         -4.5124408760        0.4409910946        2.5103320516
 H         -5.9658962975        0.7585789695       -0.8062400937
 H         -4.7065319530       -0.2431624928       -1.5260720190
 H         -4.5282165703        1.5056126696       -1.5119443073
 H         -2.4121173789        0.5545663266        1.4766843239
 H         -1.8835765910        1.6931774147       -1.0326419727
 H         -2.3050714728        0.0520028596       -1.5029717195
 H         -2.0872029821       -1.5634625427        0.3047697447
 H          3.6948831186       -1.7734589506        1.0276155149
 H          5.5568684847       -0.1865248520        0.5991732476
 H          5.0731279093        2.0277159621       -0.3851855429
 H          2.7332221846        2.6465939603       -0.9337447910
  32
 Etot=  -51.4236907822 g norm=  0.00027037
 C         -5.1039627491       -0.4286397312        1.2826233514
 C         -4.1987161329        0.2178450829        0.2775897897
 C         -4.8829053767        0.6651232285       -0.9792400559
 C         -2.9040116981        0.3910903799        0.5322885515
 C         -1.8999392445        1.0755829582       -0.3527760587
 C         -0.5199312664        0.4787578860       -0.2489974163
 C         -0.3088609507       -0.8591073974       -0.3550400194
 O         -1.2794134317       -1.7581891113       -0.5504767000
 C          1.0444994445       -1.4718487342       -0.2778307644
 O          1.1942009537       -2.6800445218       -0.3849395598
 C          2.1661373465       -0.5445071509       -0.0730927935
 C          3.4617633613       -1.0473152543        0.0082840182
 C          4.5351290677       -0.1931128940        0.2012189314
 C          4.3215129844        1.1714764449        0.3145031064
 C          3.0349347647        1.6816078949        0.2349763807
 C          1.9497795609        0.8346378206        0.0413476405
 C          0.5888907800        1.4067806121       -0.0381009080
 O          0.4037891413        2.6174045475        0.0670116555
 H         -4.5720338429       -0.6737460193        2.1977682392
 H         -5.5328905763       -1.3414329768        0.8714204165
 H         -5.9269804076        0.2418068064        1.5244305754
 H         -4.2070273306        0.7054080658       -1.8288739564
 H         -5.2949182454        1.6634541972       -0.8346752118
 H         -5.7057431696       -0.0042046451       -1.2180002630
 H         -2.5099131718        0.0707521986        1.4892164401
 H         -1.8150326618        2.1288998794       -0.0654211712
 H         -2.2229143502        1.0567808675       -1.3972026923
 H         -2.1620634647       -1.3389882704       -0.5165533879
 H          3.6019630584       -2.1140096206       -0.0820321842
 H          5.5346369716       -0.5929465488        0.2629381901
 H          5.1540755765        1.8402233673        0.4646512779
 H          2.8460300733        2.7412406795        0.3216286947
  32
 Etot=  -51.4237388320 g norm=  0.00058490
 C         -4.7569611896        0.2461075135        2.0056282090
 C         -3.9723529646        0.1185138786        0.7336397106
 C         -4.7457461278       -0.4741144919       -0.4046257987
 C         -2.7099115904        0.5339050976        0.6658743373
 C         -1.8137748152        0.5270384622       -0.5415493794
 C         -0.3764541868        0.2282642353       -0.1995425372
 C         -0.0302657909       -0.8449274326        0.5582129037
 O         -0.9063304101       -1.7177404881        1.0669223171
 C          1.3809326396       -1.1739715872        0.8949031609
 O          1.6529695231       -2.1533318184        1.5734525972
 C          2.4043767745       -0.2626513813        0.3637319806
 C          3.7466233440       -0.5080996034        0.6398516909
 C          4.7294465062        0.3369966321        0.1511795460
 C          4.3777739867        1.4349414749       -0.6179338165
 C          3.0438572014        1.6879677494       -0.8978427243
 C          2.0485359063        0.8469949799       -0.4135369384
 C          0.6342111285        1.1414766972       -0.7280239124
 O          0.3269652323        2.1178942634       -1.4086329062
 H         -5.0880657047       -0.7337394821        2.3461783425
 H         -5.6453789536        0.8515728239        1.8336278468
 H         -4.1668808867        0.7087170315        2.7918154880
 H         -4.1121136761       -0.7659371544       -1.2361062369
 H         -5.4657815431        0.2562152574       -0.7716945812
 H         -5.3035964757       -1.3445021617       -0.0646106801
 H         -2.2604039811        0.9813267670        1.5442615959
 H         -1.8304054124        1.5145264644       -1.0146380986
 H         -2.1619093490       -0.1917852801       -1.2876483424
 H         -1.8268269122       -1.4335128727        0.9006662688
 H          3.9947524623       -1.3696619909        1.2412903016
 H          5.7661534603        0.1377569534        0.3710407894
 H          5.1395672892        2.0956387011       -1.0003555400
 H          2.7479940448        2.5378704137       -1.4947047643
  32
 Etot=  -51.4239726468 g norm=  0.00021906
 C         -4.4635383469        0.4753523601        1.9500143306
 C         -3.6353909642        0.7138117121        0.7237251120
 C         -3.6217871729        2.1297106689        0.2238381504
 C         -2.9882960696       -0.2816007946        0.1279581956
 C         -2.1282130746       -0.1597003484       -1.1039960707
 C         -0.6806272430       -0.3400514731       -0.7184717826
 C         -0.1279156224       -1.5662685633       -0.5295204320
 O         -0.7758651244       -2.7251590329       -0.7038829022
 C          1.2846825114       -1.7598496459       -0.1080874164
 O          1.7491430832       -2.8816317325        0.0348120519
 C          2.0692217208       -0.5382390446        0.1173240968
 C          3.3975723929       -0.6438821590        0.5200038666
 C          4.1578536199        0.4939302303        0.7347718642
 C          3.5951763752        1.7469397882        0.5498517366
 C          2.2728621881        1.8620908494        0.1501181236
 C          1.5000114973        0.7275816704       -0.0697274444
 C          0.0932226830        0.8803909376       -0.4964013753
 O         -0.3975208984        1.9943778544       -0.6623537800
 H         -4.4681127432       -0.5746690772        2.2302839562
 H         -5.4884563151        0.7987472341        1.7745200132
 H         -4.0694534143        1.0576373991        2.7821067705
 H         -4.0432198963        2.7983445662        0.9690158598
 H         -4.2133630112        2.2182844319       -0.6867047010
 H         -2.6077295323        2.4559516399       -0.0004607438
 H         -3.0325210068       -1.2713069044        0.5640494051
 H         -2.2406262244        0.8293501358       -1.5445092873
 H         -2.4289627093       -0.9018088470       -1.8476908675
 H         -1.6865296155       -2.5902082207       -1.0177746381
 H          3.8128668605       -1.6312682125        0.6559416727
 H          5.1864167013        0.4012061915        1.0450831087
 H          4.1835892861        2.6353250684        0.7158508218
 H          1.8156992368        2.8285752072       -0.0006230748
  32
 Etot=  -51.4249807536 g norm=  0.00019294
 C         -4.6276967019       -0.2221259751        1.3998331376
 C         -3.4064970651        0.2973667481        0.7053926996
 C         -2.4089244927        0.9717545775        1.5979971463
 C         -3.2323139773        0.1416514269       -0.6044143776
 C         -2.0486349775        0.6411123590       -1.3930698345
 C         -0.7117745038        0.1932476772       -0.8542845468
 C         -0.4649994542       -1.1017694909       -0.5270807974
 O         -1.3592163215       -2.0892612490       -0.6407892222
 C          0.8468419751       -1.5672709775       -0.0045532320
 O          1.0273382563       -2.7409282634        0.2852723787
 C          1.8914987384       -0.5429882233        0.1344016683
 C          3.1478361886       -0.9088411962        0.6092457824
 C          4.1482020895        0.0391529297        0.7493751676
 C          3.8994753120        1.3614148023        0.4171101747
 C          2.6509178406        1.7355050357       -0.0552127297
 C          1.6396867303        0.7930319698       -0.2019262522
 C          0.3165201962        1.2209575822       -0.7030360954
 O          0.0942712661        2.3995025855       -0.9744633851
 H         -4.3380744571       -0.8949128034        2.2057480211
 H         -5.2808745758       -0.7533968706        0.7131644256
 H         -5.1839982416        0.6032092428        1.8421326137
 H         -1.7348767295        0.2325888382        2.0336054429
 H         -2.9176998927        1.4795263085        2.4140027345
 H         -1.8084733500        1.6973959983        1.0551060528
 H         -4.0134559249       -0.3348434295       -1.1816467643
 H         -2.0358337467        1.7358364806       -1.4048631536
 H         -2.1399286896        0.3126311026       -2.4316362372
 H         -2.2304045923       -1.7482381138       -0.9200903258
 H          3.3156594613       -1.9445901942        0.8634110262
 H          5.1178086934       -0.2547141810        1.1181647694
 H          4.6751985983        2.1027917764        0.5250106057
 H          2.4361271629        2.7602115560       -0.3192036470
  32
 Etot=  -51.4249859153 g norm=  0.00051526
 C         -4.6573687520       -0.0881958004        1.4742899459
 C         -3.4545094572        0.3160994144        0.6784294001
 C         -2.5032198540        1.2310532530        1.3886747047
 C         -3.2554297966       -0.1350058746       -0.5575198759
 C         -2.0888791748        0.2233061183       -1.4420827014
 C         -0.7365552033        0.0075657976       -0.8078517604
 C         -0.4256038223       -1.1358340991       -0.1437567870
 O         -1.2640251388       -2.1653634091        0.0140705990
 C          0.8999996431       -1.3676089969        0.4883194862
 O          1.1332164054       -2.4007107771        1.0986328560
 C          1.8917110677       -0.2943859868        0.3315506003
 C          3.1613601892       -0.4517456329        0.8800713228
 C          4.1130680170        0.5455748828        0.7433375538
 C          3.8019051893        1.7094124827        0.0583012383
 C          2.5390959633        1.8764781606       -0.4887118361
 C          1.5762360943        0.8822394680       -0.3593205799
 C          0.2352545057        1.0906978289       -0.9450175189
 O         -0.0470883355        2.1403329890       -1.5197313640
 H         -5.2593230522        0.7879860046        1.7107791168
 H         -4.3452760202       -0.5379839745        2.4156427851
 H         -5.2747781771       -0.7979586970        0.9310215913
 H         -1.8010427553        0.6499839384        1.9885095386
 H         -3.0474339970        1.8909204563        2.0601964433
 H         -1.9300847387        1.8369282555        0.6912259288
 H         -4.0051050028       -0.7724584426       -1.0071397717
 H         -2.1406707539        1.2790214212       -1.7278800364
 H         -2.1427591009       -0.3583742410       -2.3660443009
 H         -2.1502283274       -1.9578876175       -0.3409024338
 H          3.3787185638       -1.3669490557        1.4099480091
 H          5.0939642826        0.4132837328        1.1712262072
 H          4.5398455865        2.4882241557       -0.0508087517
 H          2.2752222007        2.7761928333       -1.0244596211
  32
 Etot=  -51.4237297193 g norm=  0.00034993
 C         -4.8636726625        0.2102431000        1.8441609873
 C         -4.0487823229        0.1158275644        0.5882807312
 C         -4.7913700308       -0.4565202809       -0.5805232181
 C         -2.7879591932        0.5405231848        0.5604644556
 C         -1.8592562472        0.5647072964       -0.6220108340
 C         -0.4360386887        0.2393120806       -0.2459125869
 C         -0.1249834809       -0.8694113923        0.4749467173
 O         -1.0255639196       -1.7562640102        0.9115550895
 C          1.2703762334       -1.2243920964        0.8487490810
 O          1.5107055729       -2.2326472724        1.4961481180
 C          2.3187417077       -0.3005378110        0.3932741416
 C          3.6486017351       -0.5711302511        0.7037326508
 C          4.6546731004        0.2852868570        0.2875486089
 C          4.3387831637        1.4203029458       -0.4422716658
 C          3.0173882099        1.6985629016       -0.7558412578
 C          1.9990574852        0.8461603558       -0.3449575860
 C          0.5989772909        1.1676773490       -0.6948840355
 O          0.3227479663        2.1777759683       -1.3385598689
 H         -4.2961949931        0.6626510806        2.6526985346
 H         -5.1915522637       -0.7798033634        2.1577308860
 H         -5.7547185455        0.8096534506        1.6644328553
 H         -5.3470281183       -1.3404387963       -0.2735253292
 H         -4.1373796995       -0.7213945784       -1.4053321487
 H         -5.5116381190        0.2750542505       -0.9448013812
 H         -2.3625257728        0.9687489592        1.4601305734
 H         -1.8520534297        1.5678561615       -1.0608538371
 H         -2.1925969453       -0.1251008423       -1.4012632791
 H         -1.9370542928       -1.4559597472        0.7263158836
 H          3.8685805334       -1.4611524812        1.2739063470
 H          5.6814895762        0.0662274240        0.5334185219
 H          5.1186814185        2.0900359987       -0.7681995799
 H          2.7493679301        2.5772022605       -1.3234229840
  32
 Etot=  -51.4237122958 g norm=  0.00018013
 C         -5.0147226297       -0.8187158051        1.2513181122
 C         -4.1447087086       -0.0744494515        0.2821144028
 C         -4.8559647297        0.3718360648       -0.9586447397
 C         -2.8650508212        0.1645885910        0.5580703356
 C         -1.8833351630        0.9382670439       -0.2781911112
 C         -0.4843055529        0.3830690285       -0.1968682015
 C         -0.2251836281       -0.9349645899       -0.4003864586
 O         -1.1601422600       -1.8484807163       -0.6821604829
 C          1.1471003626       -1.5061645249       -0.3443302269
 O          1.3407969729       -2.6966807831       -0.5410738169
 C          2.2320025586       -0.5603733731       -0.0469905644
 C          3.5425100303       -1.0250392339        0.0225559499
 C          4.5823937640       -0.1528227445        0.2995033493
 C          4.3200645922        1.1918003594        0.5092303987
 C          3.0182580236        1.6636904735        0.4433204465
 C          1.9662196977        0.7982595934        0.1662417189
 C          0.5878502336        1.3292481001        0.1035148828
 O          0.3589110533        2.5213933010        0.2966722565
 H         -5.8586912761       -0.1968640109        1.5455123568
 H         -4.4632850967       -1.1024219520        2.1433944117
 H         -5.4159456546       -1.7179153710        0.7862385692
 H         -5.4505288536       -0.4456932823       -1.3625069595
 H         -4.1770569646        0.7265908563       -1.7275638701
 H         -5.5384113078        1.1843246359       -0.7115613314
 H         -2.4640266459       -0.1753689123        1.5052700345
 H         -1.8366114206        1.9734516210        0.0758907245
 H         -2.1960524432        0.9712194464       -1.3249241519
 H         -2.0574953038       -1.4641357836       -0.6353650470
 H          3.7204963459       -2.0767697596       -0.1443613005
 H          5.5938676542       -0.5229993301        0.3512138215
 H          5.1266822560        1.8745445069        0.7243138101
 H          2.7917278319        2.7071767794        0.6040809719
  32
 Etot=  -51.4239540844 g norm=  0.00029403
 C         -4.2963637319        1.0760658969        2.0323590370
 C         -3.5104631455        1.0278195035        0.7570819417
 C         -3.4660136603        2.3137010481       -0.0175195825
 C         -2.9266933384       -0.0948662817        0.3524059856
 C         -2.1155272506       -0.2609344642       -0.9073443028
 C         -0.6571225429       -0.4036514045       -0.5465279339
 C         -0.1288719147       -1.5791773331       -0.1174901287
 O         -0.8154508773       -2.7235098483       -0.0091176605
 C          1.2971099766       -1.7288749574        0.2763965732
 O          1.7390394976       -2.8108193369        0.6348093843
 C          2.1215751872       -0.5148858308        0.2058321376
 C          3.4632315233       -0.5780171344        0.5718920813
 C          4.2609014462        0.5529017515        0.5108136333
 C          3.7225972795        1.7567027982        0.0844322152
 C          2.3876045012        1.8293311678       -0.2818921115
 C          1.5772746808        0.7010174377       -0.2263058333
 C          0.1581016097        0.8072676193       -0.6255010010
 O         -0.3089877864        1.8752025345       -1.0140032113
 H         -3.8433460527        1.7893392036        2.7197799965
 H         -4.3344965183        0.1029496389        2.5145456905
 H         -5.3128453070        1.4099313854        1.8296833648
 H         -4.1067495840        2.2520726030       -0.8965357445
 H         -2.4543644322        2.5349187493       -0.3533241324
 H         -3.8131348795        3.1384564557        0.5980927606
 H         -2.9926401514       -0.9750097473        0.9787485432
 H         -2.2222088445        0.6167864909       -1.5423700154
 H         -2.4651548742       -1.1322978817       -1.4667478361
 H         -1.7360934760       -2.6247974992       -0.3067676977
 H          3.8587164701       -1.5276481924        0.9002131131
 H          5.2988014291        0.4934416875        0.7971773077
 H          4.3396669803        2.6398285883        0.0363078515
 H          1.9488230294        2.7574247210       -0.6168074972
  32
 Etot=  -51.4249833170 g norm=  0.00029161
 C         -4.6932289535       -0.2102869008        1.3092984723
 C         -3.4835041439        0.2582667437        0.5606657745
 C         -2.5426853543        1.1177989063        1.3498208616
 C         -3.2697853916       -0.0946284856       -0.7043644237
 C         -2.0927759418        0.3320290438       -1.5439601553
 C         -0.7492614523        0.0580790705       -0.9132977541
 C         -0.4458577056       -1.1468192999       -0.3644500167
 O         -1.2883801908       -2.1840934973       -0.3199168183
 C          0.8759397780       -1.4469912218        0.2460679258
 O          1.1110858900       -2.5452310068        0.7284690457
 C          1.8622428867       -0.3575430859        0.2279752488
 C          3.1235111039       -0.5690020499        0.7777759222
 C          4.0694451275        0.4430228444        0.7730107473
 C          3.7608322444        1.6756683203        0.2198067466
 C          2.5070357266        1.8959701119       -0.3290598857
 C          1.5501605911        0.8875517654       -0.3321381094
 C          0.2203804551        1.1516068616       -0.9210781392
 O         -0.0554311766        2.2538799427       -1.3908019927
 H         -5.3027635641       -0.8762825305        0.7050227150
 H         -5.3001178641        0.6428626834        1.6086687577
 H         -4.3887972380       -0.7330304572        2.2147943085
 H         -3.0951200918        1.7167742559        2.0697337928
 H         -1.9700101642        1.7826785380        0.7081148623
 H         -1.8397174380        0.4942715199        1.9042427093
 H         -4.0128359048       -0.6961985441       -1.2105901742
 H         -2.1380520120        1.4078339450       -1.7419159408
 H         -2.1376782821       -0.1730037127       -2.5125260207
 H         -2.1703890428       -1.9363053649       -0.6588416430
 H          3.3393006720       -1.5378804245        1.2024578580
 H          5.0441695659        0.2684329909        1.1998954689
 H          4.4939276569        2.4665903865        0.2149607756
 H          2.2455314362        2.8489368936       -0.7643620065
  32
 Etot=  -51.4249455773 g norm=  0.00022218
 C         -4.8494237256       -0.6177321331        0.7931654208
 C         -3.5849700307        0.0577288264        0.3588976435
 C         -2.6826772046        0.4908674927        1.4745500549
 C         -3.2955749062        0.2283910031       -0.9286067095
 C         -2.0646091902        0.9109760717       -1.4673452927
 C         -0.7611163951        0.3758934997       -0.9270341173
 C         -0.5006593859       -0.9553508290       -0.8559986364
 O         -1.3529819171       -1.9101742914       -1.2431357047
 C          0.7795767113       -1.5006487442       -0.3324077173
 O          0.9602800940       -2.7063911497       -0.2447215816
 C          1.7959143819       -0.5129480884        0.0570918706
 C          3.0379097423       -0.9514909568        0.5074330265
 C          4.0120142921       -0.0387730227        0.8777875805
 C          3.7498988985        1.3201753022        0.8053221019
 C          2.5144760256        1.7662898447        0.3621747834
 C          1.5308788517        0.8601505833       -0.0171979404
 C          0.2225290923        1.3632438732       -0.4860268897
 O         -0.0229456382        2.5678245242       -0.5006816654
 H         -5.4548436372        0.0688955284        1.3829046398
 H         -4.6149313889       -1.4750256575        1.4223991879
 H         -5.4347419869       -0.9535886159       -0.0581391726
 H         -3.2708481620        0.7875513614        2.3399237609
 H         -2.0489642241        1.3238445493        1.1803907917
 H         -2.0372122664       -0.3352584168        1.7770035951
 H         -4.0139098913       -0.0923880570       -1.6711592096
 H         -2.0910595659        1.9795739723       -1.2299573582
 H         -2.0536760763        0.8283153427       -2.5573989059
 H         -2.2098666683       -1.5299681540       -1.5176097092
 H          3.2164370342       -2.0151515019        0.5571533105
 H          4.9719649492       -0.3888372165        1.2225858601
 H          4.5049276796        2.0341894906        1.0937730041
 H          2.2890094326        2.8204758281        0.3006954207
  32
 Etot=  -51.4237215025 g norm=  0.00038409
 C         -4.9967844557       -0.5634625465        1.5883345356
 C         -4.1331289613       -0.0126228419        0.4928920899
 C         -4.8431650525        0.1652445984       -0.8145925936
 C         -2.8594574967        0.3004601985        0.7198227866
 C         -1.8878137249        0.9144776086       -0.2490557148
 C         -0.4871248147        0.3791753429       -0.0936086167
 C         -0.2313484600       -0.9541494766       -0.0414094957
 O         -1.1722945791       -1.9014643570       -0.1150144179
 C          1.1424977219       -1.5080549861        0.0947427584
 O          1.3313127175       -2.7143025472        0.1486650082
 C          2.2351408514       -0.5268249628        0.1525266679
 C          3.5492290334       -0.9736889221        0.2602729246
 C          4.5958424059       -0.0680125184        0.3174905500
 C          4.3365645718        1.2925776658        0.2695959579
 C          3.0312711574        1.7472104381        0.1637132260
 C          1.9727201117        0.8481895536        0.1031784201
 C          0.5911874186        1.3618570398       -0.0120639679
 O          0.3649971839        2.5697188162       -0.0411619300
 H         -5.8637542301        0.0785485169        1.7355105396
 H         -4.4521054410       -0.6347723599        2.5257250909
 H         -5.3627015825       -1.5533116207        1.3194525967
 H         -5.4664203263       -0.7021462424       -1.0225474049
 H         -4.1612837791        0.3147172424       -1.6457635482
 H         -5.4965725940        1.0350090936       -0.7564234097
 H         -2.4577257563        0.1615449403        1.7164634536
 H         -1.8363289978        1.9951434641       -0.0797630361
 H         -2.2144952750        0.7683612016       -1.2816279497
 H         -2.0681982811       -1.5088118774       -0.1193441913
 H          3.7248921386       -2.0383130796        0.2973882878
 H          5.6101751824       -0.4246194525        0.3993991443
 H          5.1482013667        2.0012623072        0.3139099347
 H          2.8069693087        2.8027476144        0.1252340348
  32
 Etot=  -51.4250059439 g norm=  0.00030355
 C         -4.7090704799       -0.1985509019       -1.1591180165
 C         -3.4486193654        0.3157014686       -0.5341664288
 C         -2.4964362485        0.9788492446       -1.4827877753
 C         -3.2047344714        0.1637611693        0.7649258856
 C         -1.9767346780        0.6566144616        1.4869254925
 C         -0.6736292101        0.2025426709        0.8755906725
 C         -0.4533342412       -1.0924521625        0.5298563384
 O         -1.3465160092       -2.0749172488        0.6872213704
 C          0.8254161116       -1.5636003935       -0.0646164675
 O          0.9835569072       -2.7375769766       -0.3660727217
 C          1.8661733352       -0.5444141172       -0.2593210657
 C          3.0910307494       -0.9150222353       -0.8071447268
 C          4.0869783984        0.0281541719       -1.0010579400
 C          3.8652178393        1.3503029476       -0.6498692384
 C          2.6481323784        1.7290589111       -0.1047250939
 C          1.6416865613        0.7914399662        0.0962454413
 C          0.3522790452        1.2241597658        0.6749848587
 O          0.1544589545        2.4017505622        0.9679827081
 H         -5.3269087495       -0.7244645004       -0.4366197866
 H         -4.4678927795       -0.8747266854       -1.9778848934
 H         -5.2838700513        0.6287955904       -1.5726505471
 H         -1.8570967358        1.6974160592       -0.9762523704
 H         -3.0456880115        1.4923316543       -2.2682874383
 H         -1.8575210327        0.2319776029       -1.9561908889
 H         -3.9567818135       -0.3047554121        1.3856127016
 H         -2.0123909189        0.3281024474        2.5288447916
 H         -1.9579625068        1.7511965573        1.4984207949
 H         -2.2003013798       -1.7295431889        1.0116691109
 H          3.2384175463       -1.9508287842       -1.0736574594
 H          5.0324562428       -0.2695209417       -1.4255942638
 H          4.6375568960        2.0879658789       -0.7995011591
 H          2.4545575341        2.7538954071        0.1747959578
  32
 Etot=  -51.4239754807 g norm=  0.00035775
 C         -4.5316795619        1.0732746409        1.6176737771
 C         -3.7162306468        0.8685841397        0.3770435524
 C         -3.7431730684        2.0050391167       -0.6041582325
 C         -3.0443468715       -0.2593972810        0.1747420354
 C         -2.1926904034       -0.5723863466       -1.0288046230
 C         -0.7407444333       -0.5856130113       -0.6185077341
 C         -0.1647919576       -1.6629804929       -0.0249766354
 O         -0.7930541316       -2.8197394378        0.2201741469
 C          1.2558293198       -1.6802602867        0.4139275341
 O          1.7480761367       -2.6844241441        0.9076770412
 C          2.0130675750       -0.4373324653        0.2136081124
 C          3.3418620124       -0.3734353089        0.6238493083
 C          4.0760490654        0.7873788855        0.4445642033
 C          3.4872514628        1.8938708887       -0.1469590517
 C          2.1650321843        1.8392760478       -0.5596146101
 C          1.4176462218        0.6801331281       -0.3848001681
 C          0.0100678194        0.6500441393       -0.8351063948
 O         -0.5008122373        1.6291904956       -1.3731563084
 H         -4.5002745656        0.2002728540        2.2643322183
 H         -5.5675292336        1.2784238162        1.3516146500
 H         -4.1543992018        1.9323825684        2.1711105266
 H         -2.7375807067        2.2587457513       -0.9354599914
 H         -4.1902945510        2.8857595060       -0.1520143897
 H         -4.3300621009        1.7375405062       -1.4820691158
 H         -3.0596183420       -1.0243903942        0.9404853700
 H         -2.3220985383        0.1943945937       -1.7904918528
 H         -2.4855130345       -1.5339115714       -1.4580043182
 H         -1.7100763850       -2.8122102671       -0.1039506810
 H          3.7774420608       -1.2488422533        1.0818510880
 H          5.1046574180        0.8265511364        0.7658997443
 H          4.0554014954        2.7995366614       -0.2885663641
 H          1.6875821238        2.6896037998       -1.0231643052
  32
 Etot=  -51.4237067992 g norm=  0.00033923
 C         -5.0597865468        0.0249469712        1.5701312160
 C         -4.1911640701        0.2921148453        0.3771929229
 C         -4.9244714012        0.2983273636       -0.9294751049
 C         -2.8894461938        0.5291722715        0.5174706333
 C         -1.9128257366        0.8712673302       -0.5744367593
 C         -0.5211293922        0.3673872967       -0.2918928092
 C         -0.2868159042       -0.9277599575        0.0448615052
 O         -1.2430026760       -1.8556116177        0.1595913277
 C          1.0763621351       -1.4587811578        0.3126418780
 O          1.2474008916       -2.6323844286        0.6076978194
 C          2.1813925556       -0.4966202923        0.1963229392
 C          3.4854453627       -0.9235042167        0.4314191023
 C          4.5436785116       -0.0356086170        0.3286203315
 C          4.3063462717        1.2872357801       -0.0097817574
 C          3.0112145602        1.7219108496       -0.2451097137
 C          1.9410168124        0.8403071804       -0.1457072916
 C          0.5705783192        1.3320881832       -0.4024354255
 O          0.3640453450        2.5072899444       -0.6976448245
 H         -5.8588917770        0.7628083136        1.6188834331
 H         -4.4897823745        0.0664014576        2.4941354807
 H         -5.5237754359       -0.9568631567        1.4883144398
 H         -5.6620729317       -0.5011742002       -0.9496166317
 H         -4.2608788625        0.1860054376       -1.7813817305
 H         -5.4559355995        1.2426412712       -1.0420435654
 H         -2.4646591438        0.5418827494        1.5139403987
 H         -1.8445698250        1.9592216229       -0.6783147066
 H         -2.2485073545        0.4785212271       -1.5380360113
 H         -2.1313848613       -1.4626192600        0.0541915158
 H          3.6441253256       -1.9587957720        0.6935939479
 H          5.5500336145       -0.3767809904        0.5120982089
 H          5.1272599674        1.9818673792       -0.0910965956
 H          2.8038978699        2.7481725957       -0.5093651880
  32
 Etot=  -51.4237190765 g norm=  0.00031190
 C         -5.1400843295       -0.7577240764       -0.8050924372
 C         -4.1842737961        0.0194036352        0.0467237777
 C         -4.7803510093        0.6522109769        1.2709619981
 C         -2.9034386101        0.1507171128       -0.2906257942
 C         -1.8835298617        0.9588468386        0.4621276582
 C         -0.4867531593        0.4051444975        0.3532231959
 C         -0.2158504447       -0.9064514845        0.5813485028
 O         -1.1385754732       -1.8170160082        0.9107632527
 C          1.1568313781       -1.4736413831        0.5009524593
 O          1.3599642891       -2.6600382712        0.7128038887
 C          2.2307193184       -0.5291866967        0.1623721148
 C          3.5423446446       -0.9881175656        0.0784207904
 C          4.5716377367       -0.1168146367       -0.2383773504
 C          4.2973546119        1.2209295469       -0.4746803177
 C          2.9941903237        1.6870094816       -0.3948367689
 C          1.9529321814        0.8226734863       -0.0769543647
 C          0.5730672311        1.3475963737        0.0009729916
 O          0.3329612823        2.5325314898       -0.2208107770
 H         -5.9555370094       -0.1122879099       -1.1282083578
 H         -5.5738469539       -1.5768744255       -0.2330624916
 H         -4.6480129674       -1.1650534980       -1.6841927701
 H         -4.8567855308        1.7302483293        1.1344900413
 H         -4.1698786726        0.4750390213        2.1541654968
 H         -5.7759709241        0.2595184178        1.4560175975
 H         -2.5453311652       -0.2963736728       -1.2094544514
 H         -2.1600631222        1.0380363933        1.5172675261
 H         -1.8551305463        1.9791193699        0.0647895635
 H         -2.0390490964       -1.4379464950        0.8758785404
 H          3.7300649691       -2.0345613215        0.2666542672
 H          5.5841278956       -0.4826336078       -0.3004612055
 H          5.0954462251        1.9029237186       -0.7216330457
 H          2.7583704102        2.7250915131       -0.5758973159
  32
 Etot=  -51.4236930130 g norm=  0.00031664
 C         -5.0933123637       -0.4899403575        1.1952540495
 C         -4.1994504536        0.1730492762        0.1896980155
 C         -4.8990184090        0.5975986963       -1.0653242239
 C         -2.9086221312        0.3685138603        0.4473829834
 C         -1.9032023823        1.0623099513       -0.4299392698
 C         -0.5213455171        0.4721101539       -0.3127266233
 C         -0.3013274905       -0.8628025361       -0.4363372961
 O         -1.2637450821       -1.7630376366       -0.6635713141
 C          1.0537869822       -1.4695061180       -0.3464512236
 O          1.2135022306       -2.6736292113       -0.4807508530
 C          2.1650583612       -0.5410260002       -0.0954219967
 C          3.4602786671       -1.0398556710        0.0126000386
 C          4.5240869210       -0.1845869981        0.2485090387
 C          4.3014174543        1.1772260895        0.3773464087
 C          3.0151843578        1.6833674973        0.2717389701
 C          1.9393760716        0.8351227516        0.0362721568
 C          0.5782469161        1.4026569141       -0.0679855364
 O          0.3851927529        2.6110134820        0.0484601296
 H         -5.9159535803        0.1740730193        1.4555749808
 H         -4.5513186164       -0.7453247058        2.1016325791
 H         -5.5240073529       -1.3984553966        0.7765773645
 H         -5.5143645162        1.4722918203       -0.8578690968
 H         -5.5594262144       -0.1947945186       -1.4122998389
 H         -4.2097151110        0.8558307149       -1.8629239010
 H         -2.5153000263        0.0550416103        1.4068370138
 H         -1.8263660453        2.1151009867       -0.1385518780
 H         -2.2142023697        1.0422138175       -1.4776790767
 H         -2.1485460519       -1.3483408241       -0.6415929868
 H          3.6076794761       -2.1043646358       -0.0916345750
 H          5.5233262705       -0.5813915468        0.3310650826
 H          5.1267664917        1.8468584100        0.5601213731
 H          2.8193665198        2.7408093953        0.3691805729
  32
 Etot=  -51.4237234117 g norm=  0.00023860
 C         -4.8638244995        0.3298676279        1.8495978813
 C         -4.0500166548        0.1685126087        0.6000674016
 C         -4.7969091240       -0.4510002344       -0.5418844580
 C         -2.7858239157        0.5811869679        0.5512360874
 C         -1.8604728092        0.5414395344       -0.6333574931
 C         -0.4376995924        0.2301887305       -0.2442291216
 C         -0.1289916023       -0.8456205578        0.5258012611
 O         -1.0319937876       -1.7083202187        1.0037265312
 C          1.2659176477       -1.1890364138        0.9116101183
 O          1.5045677548       -2.1722053150        1.5970642710
 C          2.3156355118       -0.2846319183        0.4214752121
 C          3.6444794337       -0.5408928656        0.7480452978
 C          4.6515785173        0.2980037467        0.2998856921
 C          4.3378495439        1.4008130993       -0.4785996608
 C          3.0175635173        1.6643119090       -0.8090223796
 C          1.9981299512        0.8295580903       -0.3659039148
 C          0.5992611868        1.1353472617       -0.7341810526
 O          0.3255715961        2.1140044415       -1.4257388886
 H         -5.7577725530        0.9141068875        1.6374143752
 H         -4.2973032665        0.8294961237        2.6306351873
 H         -5.1862872836       -0.6426637644        2.2188557542
 H         -5.4030409256       -1.2813993257       -0.1855360093
 H         -4.1395157139       -0.8082329613       -1.3285181096
 H         -5.4703695769        0.2865646365       -0.9771890342
 H         -2.3558144561        1.0493073831        1.4283387490
 H         -1.8508481577        1.5206930493       -1.1230402913
 H         -2.1993283870       -0.1856828312       -1.3754897829
 H         -1.9427480374       -1.4119808919        0.8087152376
 H          3.8628414488       -1.4055571296        1.3565688115
 H          5.6775394425        0.0908203774        0.5593429564
 H          5.1185757795        2.0569389030       -0.8292347542
 H          2.7511891723        2.5175115287       -1.4149320692
  32
 Etot=  -51.4235876839 g norm=  0.00031520
 C         -5.0529001735       -0.4201661342        1.3403832510
 C         -4.1926144396        0.1716917096        0.2638097563
 C         -4.9456239443        0.6147289810       -0.9539333918
 C         -2.8762099674        0.2769339366        0.4174995938
 C         -1.9044404304        0.8739098992       -0.5672584724
 C         -0.5061994776        0.3417177179       -0.3929157120
 C         -0.2445065720       -0.9913729167       -0.4015407908
 O         -1.1762112515       -1.9367018225       -0.5648589563
 C          1.1257798036       -1.5466922391       -0.2406728881
 O          1.3234997788       -2.7522980962       -0.2731903766
 C          2.2036976762       -0.5668608627       -0.0450867398
 C          3.5099131977       -1.0149745360        0.1310107169
 C          4.5423850650       -0.1110065881        0.3200752100
 C          4.2771970149        1.2492291615        0.3327621693
 C          2.9800317914        1.7052344141        0.1562523535
 C          1.9353181973        0.8078893620       -0.0328196597
 C          0.5618412893        1.3230983788       -0.2164885998
 O          0.3335977158        2.5308929817       -0.2198299900
 H         -4.4536310101       -0.8038670774        2.1615139018
 H         -5.6581865601       -1.2296571483        0.9360349377
 H         -5.7329345979        0.3353322237        1.7315402532
 H         -5.7943770765        1.2261289389       -0.6538571591
 H         -5.3392794288       -0.2506236210       -1.4864122259
 H         -4.3294441885        1.1953279968       -1.6321873284
 H         -2.4307847638       -0.0417503852        1.3518865295
 H         -1.8534328833        1.9588131447       -0.4264785438
 H         -2.2327065207        0.6944790832       -1.5945244149
 H         -2.0714625272       -1.5522905082       -0.6126363945
 H          3.6908574705       -2.0793201700        0.1162317364
 H          5.5504747235       -0.4686839132        0.4565576879
 H          5.0780079042        1.9564918568        0.4795170955
 H          2.7514490981        2.7605581037        0.1619573241
  32
 Etot=  -51.4233483359 g norm=  0.00025391
 C         -4.6325609018        0.1547586118        1.5813299317
 C         -3.5896766496        0.5730721710        0.5867495045
 C         -3.1704069886        2.0061582141        0.7078401358
 C         -3.1260524312       -0.2845944367       -0.3153565144
 C         -2.0888129546        0.0001880849       -1.3740564842
 C         -0.6873174170       -0.2266604639       -0.8531084550
 C         -0.2215162107       -1.4686419341       -0.5612427883
 O         -0.9248618449       -2.5949812180       -0.7195272776
 C          1.1488847203       -1.7189781861       -0.0388942214
 O          1.5361522404       -2.8557913142        0.1866744013
 C          1.9879316868       -0.5329556751        0.1774754606
 C          3.2741098914       -0.6888335677        0.6867800408
 C          4.0842695006        0.4153261653        0.8949056036
 C          3.6146388378        1.6841685629        0.5944479677
 C          2.3354866629        1.8490547979        0.0861230335
 C          1.5126304665        0.7488522499       -0.1263532315
 C          0.1536324997        0.9544868326       -0.6694353017
 O         -0.2455772761        2.0809926416       -0.9569479715
 H         -4.2319918839        0.2228605955        2.5920346316
 H         -4.9637285370       -0.8652678657        1.4076496793
 H         -5.4928377243        0.8193196024        1.5218977778
 H         -3.9845319637        2.6550021596        0.3852432203
 H         -2.2904967099        2.2391384222        0.1171270933
 H         -2.9564258678        2.2403292216        1.7492866333
 H         -3.5160471262       -1.2939279229       -0.2988418172
 H         -2.1521752491        1.0386657365       -1.7001368136
 H         -2.2695104095       -0.6346532868       -2.2448708382
 H         -1.8087952685       -2.4224455955       -1.0855282323
 H          3.6165121349       -1.6876731990        0.9122110490
 H          5.0787971672        0.2842650932        1.2906591610
 H          4.2419652800        2.5465715109        0.7550654595
 H          1.9511392554        2.8289208544       -0.1548765164
  32
 Etot=  -51.4239741675 g norm=  0.00041868
 C         -4.5912771355        0.2825613998        1.6649191157
 C         -3.7349848792        0.6049075087        0.4779546628
 C         -3.7483821520        2.0436033728        0.0472859400
 C         -3.0386267800       -0.3398594487       -0.1443308230
 C         -2.1440399855       -0.1297480997       -1.3391038917
 C         -0.7076809148       -0.3249611912       -0.9210015366
 C         -0.1416599437       -1.5557424633       -0.8232871000
 O         -0.7661798895       -2.7032638753       -1.1171281278
 C          1.2630243858       -1.7660262153       -0.3834677845
 O          1.7479379739       -2.8875687993       -0.3456808765
 C          2.0140662341       -0.5602725515       -0.0084063768
 C          3.3280907953       -0.6843953381        0.4342706723
 C          4.0553412587        0.4376931560        0.7959449567
 C          3.4739773376        1.6934033058        0.7179665335
 C          2.1668661726        1.8271268571        0.2762052297
 C          1.4268009244        0.7086007013       -0.0897987807
 C          0.0360843172        0.8809410943       -0.5602313659
 O         -0.4666207980        1.9986237709       -0.6460585218
 H         -4.5684601522       -0.7788674488        1.8972033198
 H         -5.6209112058        0.5797344120        1.4721491940
 H         -4.2424762015        0.8385048077        2.5343391738
 H         -4.2361224903        2.6596167223        0.7972184311
 H         -4.2895214312        2.1566916408       -0.8913228546
 H         -2.7356429042        2.4150020187       -0.1007313458
 H         -3.0644762873       -1.3514522715        0.2398519808
 H         -2.2520658942        0.8860710472       -1.7149335929
 H         -2.4148796241       -0.8220460655       -2.1402763958
 H         -1.6733634456       -2.5538200777       -1.4347041715
 H          3.7579631185       -1.6734886714        0.4864431341
 H          5.0723632184        0.3304549895        1.1379655745
 H          4.0361747148        2.5695995851        0.9995200193
 H          1.6960159910        2.7963314047        0.2062128367
  32
 Etot=  -51.4249976087 g norm=  0.00022592
 C         -4.8203911283       -0.9027390842        0.5942395665
 C         -3.5632924116       -0.1172392398        0.3796890000
 C         -2.6439624269       -0.0568294695        1.5618514810
 C         -3.2939052028        0.4572136147       -0.7901087693
 C         -2.0703277410        1.2812141550       -1.0984470173
 C         -0.7601894432        0.5994029501       -0.7879010669
 C         -0.5086959651       -0.6838963923       -1.1554985370
 O         -1.3767952759       -1.4623675518       -1.8100837802
 C          0.7790881435       -1.3689709177       -0.8672939250
 O          0.9580217109       -2.5335459334       -1.1927487246
 C          1.8042100743       -0.5663710314       -0.1855025476
 C          3.0455786081       -1.1333655921        0.0885435666
 C          4.0279987839       -0.3952397810        0.7280881806
 C          3.7757233336        0.9153304232        1.1013868533
 C          2.5411478911        1.4873677161        0.8360490353
 C          1.5483119085        0.7575751904        0.1925682649
 C          0.2396109548        1.3909664396       -0.0733587176
 O          0.0061270811        2.5392310850        0.2989703370
 H         -5.4116086984       -0.9653005003       -0.3150493008
 H         -5.4236831020       -0.4345222356        1.3705677731
 H         -4.5764415088       -1.9099737848        0.9284340172
 H         -1.9931831430       -0.9325537992        1.5757987964
 H         -3.2186815502       -0.0549627358        2.4849236522
 H         -2.0155955975        0.8300444794        1.5389811581
 H         -4.0231584219        0.3871245327       -1.5861143563
 H         -2.0870583255        2.2127878972       -0.5232219908
 H         -2.0793527841        1.5609086756       -2.1552423363
 H         -2.2381001910       -1.0145810007       -1.9213204977
 H          3.2170207797       -2.1563679577       -0.2109767597
 H          4.9870010264       -0.8433131717        0.9339979420
 H          4.5378256162        1.4936276996        1.5991507176
 H          2.3230529317        2.5060029053        1.1202576388
  32
 Etot=  -51.4229902526 g norm=  0.00046061
 C         -4.8511129215        0.0934748350        1.6177129938
 C         -4.0060310348        0.5340719978        0.4619456715
 C         -4.4844080380        1.7560706225       -0.2685921047
 C         -2.9123052109       -0.1300710980        0.1081002436
 C         -2.0159299736        0.2426526354       -1.0460585892
 C         -0.5781772353       -0.0885962393       -0.7487072780
 C         -0.1104478841       -1.3630516911       -0.7812299860
 O         -0.8522875666       -2.4313005265       -1.0973055343
 C          1.3012410509       -1.7135817222       -0.4701054643
 O          1.6893584643       -2.8707002924       -0.5320868381
 C          2.1782439179       -0.5973943623       -0.0905867503
 C          3.5096591390       -0.8532976009        0.2257726360
 C          4.3567211175        0.1821296192        0.5852890459
 C          3.8790423717        1.4823854670        0.6310259657
 C          2.5549811356        1.7470477322        0.3170579199
 C          1.6949921593        0.7165607249       -0.0448591832
 C          0.2892071727        1.0291111734       -0.3801036994
 O         -0.1261251141        2.1850560740       -0.3537207862
 H         -5.8601682522       -0.1334034683        1.2764263374
 H         -4.9208572300        0.8940820923        2.3526121447
 H         -4.4367625716       -0.7880997198        2.0994954321
 H         -3.7150292534        2.5276509217       -0.2658967319
 H         -5.3766221162        2.1584989275        0.2017126018
 H         -4.7155839333        1.5203645407       -1.3059051344
 H         -2.6092882803       -0.9996110092        0.6767540055
 H         -2.0775638898        1.3166820273       -1.2267402920
 H         -2.3466019461       -0.2649230382       -1.9587596392
 H         -1.7696003031       -2.1883483210       -1.3115535693
 H          3.8576009115       -1.8745170597        0.1822512600
 H          5.3862079047       -0.0268290807        0.8286715202
 H          4.5350219819        2.2914425177        0.9102978555
 H          2.1627034083        2.7526456660        0.3454084174
  32
 Etot=  -51.4239196044 g norm=  0.00025492
 C         -4.2613666195        1.4594331053        1.8993051701
 C         -3.5427671800        1.1496590218        0.6212957917
 C         -3.6200690906        2.2133000181       -0.4359865659
 C         -2.9033541153       -0.0024326834        0.4540157210
 C         -2.1468120576       -0.4175931634       -0.7816261315
 C         -0.6784691071       -0.5044001356       -0.4496793340
 C         -0.1220565949       -1.6090694482        0.1113971456
 O         -0.7858131231       -2.7389016452        0.3885730192
 C          1.3177875605       -1.6909252056        0.4739825099
 O          1.7921004584       -2.7201746784        0.9323549383
 C          2.1156060097       -0.4778569029        0.2482955404
 C          3.4629232287       -0.4714760912        0.5986440372
 C          4.2342056020        0.6616863779        0.3988259840
 C          3.6642277319        1.7978317895       -0.1534508154
 C          2.3242493416        1.7998440505       -0.5084792835
 C          1.5397876788        0.6689289221       -0.3127288205
 C          0.1141371545        0.6985084954       -0.7018169730
 O         -0.3783282625        1.6980040829       -1.2189084605
 H         -5.3121928759        1.6590786666        1.6952268271
 H         -3.8361654543        2.3520798607        2.3564833587
 H         -4.1901174584        0.6370047154        2.6061911218
 H         -4.0647887645        3.1184669693       -0.0322803590
 H         -4.2289763293        1.8775790710       -1.2745010114
 H         -2.6273843827        2.4534277394       -0.8143431245
 H         -2.8723231551       -0.7116682543        1.2712699263
 H         -2.2742918897        0.3258564521       -1.5663633025
 H         -2.5233495530       -1.3745784476       -1.1513908841
 H         -1.7194455685       -2.6937873027        0.1188027266
 H          3.8836215480       -1.3690704470        1.0264047878
 H          5.2768096587        0.6561560972        0.6741061154
 H          4.2609037558        2.6824116898       -0.3104236831
 H          1.8616369741        2.6735292172       -0.9427445976
  32
 Etot=  -51.4237331161 g norm=  0.00040708
 C         -4.7719903180        0.2480023033        1.9951960691
 C         -3.9831313880        0.0907253573        0.7291850777
 C         -4.7467129315       -0.5432566366       -0.3936200427
 C         -2.7254863486        0.5186509708        0.6508257150
 C         -1.8279048770        0.4847632383       -0.5550097284
 C         -0.3866161244        0.2194744062       -0.2020513487
 C         -0.0251927408       -0.8196765689        0.5949756472
 O         -0.8883133538       -1.6861666770        1.1355340208
 C          1.3902190391       -1.1142590822        0.9453577540
 O          1.6757319809       -2.0591285316        1.6658957367
 C          2.4012903216       -0.2136107161        0.3738077206
 C          3.7473781176       -0.4338975314        0.6526364479
 C          4.7188817297        0.4006635179        0.1250415057
 C          4.3520309445        1.4635116195       -0.6852271983
 C          3.0141408813        1.6917978053       -0.9674374101
 C          2.0300045532        0.8605532785       -0.4448321353
 C          0.6111580980        1.1280180451       -0.7626303512
 O          0.2895475172        2.0782642310       -1.4729036487
 H         -5.0928987509       -0.7249119466        2.3644986186
 H         -5.6668743332        0.8381622831        1.8036764504
 H         -4.1885885297        0.7404227150        2.7682582835
 H         -5.3200176809       -1.3912012874       -0.0243580748
 H         -4.1036620412       -0.8790591263       -1.2010872047
 H         -5.4520262103        0.1782367909       -0.8047518762
 H         -2.2824858465        0.9975450498        1.5158547128
 H         -1.8588017208        1.4550730290       -1.0615966894
 H         -2.1645114868       -0.2640044999       -1.2765643783
 H         -1.8131805081       -1.4244566898        0.9579086121
 H          4.0071487551       -1.2677806424        1.2873795255
 H          5.7587753015        0.2208649582        0.3466601391
 H          5.1051776387        2.1156215882       -1.0981857432
 H          2.7063658921        2.5142561795       -1.5957944189
  32
 Etot=  -51.4239257354 g norm=  0.00048902
 C         -4.2415042584        1.4754747848        1.9162400625
 C         -3.5246849015        1.1678865452        0.6366268710
 C         -3.5864094464        2.2419115236       -0.4112526135
 C         -2.9007691292        0.0086303711        0.4601040178
 C         -2.1458058306       -0.4055235404       -0.7769388860
 C         -0.6784242816       -0.4985092125       -0.4420053827
 C         -0.1276429475       -1.6062314702        0.1187617069
 O         -0.7961453903       -2.7344108295        0.3910008755
 C          1.3106096920       -1.6935310300        0.4865207811
 O          1.7808852162       -2.7266724735        0.9403952445
 C          2.1118625352       -0.4808081138        0.2713859779
 C          3.4564236953       -0.4775189312        0.6319760430
 C          4.2308000520        0.6551826557        0.4417486299
 C          3.6669933918        1.7936583650       -0.1121116871
 C          2.3297206270        1.7988836016       -0.4770512153
 C          1.5420150245        0.6687370966       -0.2901213187
 C          0.1192001639        0.7020070686       -0.6890573061
 O         -0.3665531853        1.7026134819       -1.2103697494
 H         -3.8034876659        2.3569899741        2.3827187618
 H         -4.1837266775        0.6453720462        2.6153461057
 H         -5.2888842960        1.6931671265        1.7126946613
 H         -4.0135140721        3.1511405319        0.0017649503
 H         -4.2044892249        1.9243788246       -1.2500957055
 H         -2.5914146236        2.4680002966       -0.7916765600
 H         -2.8799204768       -0.7073343637        1.2717086908
 H         -2.2691980197        0.3410530403       -1.5594270052
 H         -2.5252242420       -1.3599045170       -1.1503363138
 H         -1.7282396096       -2.6855994694        0.1166644460
 H          3.8721413351       -1.3765706346        1.0615519554
 H          5.2714438047        0.6471312081        0.7243580209
 H          4.2659985413        2.6779753996       -0.2610653383
 H          1.8715550249        2.6747405156       -0.9116041194
  32
 Etot=  -51.4237475698 g norm=  0.00026492
 C         -5.0112672128       -0.0809110889        1.6419726892
 C         -4.1592729963        0.1451142925        0.4281306735
 C         -4.9022048061        0.0449380038       -0.8691602153
 C         -2.8662984887        0.4353799412        0.5460538829
 C         -1.9006755954        0.7435950429       -0.5659588751
 C         -0.4994483840        0.2837671565       -0.2561344834
 C         -0.2373090028       -0.9951175750        0.1195748788
 O         -1.1703897404       -1.9443354593        0.2476052573
 C          1.1350683081       -1.4836366663        0.4197852912
 O          1.3322714122       -2.6456512729        0.7427806564
 C          2.2153608183       -0.4940198914        0.3030811663
 C          3.5249334773       -0.8782413805        0.5778170867
 C          4.5603743180        0.0362231435        0.4762479537
 C          4.2944201788        1.3431124219        0.0993290639
 C          2.9936107851        1.7352123965       -0.1761487510
 C          1.9460673357        0.8266243391       -0.0782725129
 C          0.5687480533        1.2730622502       -0.3779422427
 O          0.3377362129        2.4319933299       -0.7161570660
 H         -5.4612264767       -1.0719327676        1.6102826411
 H         -5.8207507318        0.6468953417        1.6673885907
 H         -4.4318909403        0.0110720569        2.5565173175
 H         -4.2406952592       -0.0083169894       -1.7278768426
 H         -5.5384056985        0.9208834056       -0.9899966284
 H         -5.5468648185       -0.8318733541       -0.8648640868
 H         -2.4389884550        0.5195975270        1.5380183204
 H         -1.8549732599        1.8263724473       -0.7223111190
 H         -2.2281641403        0.2958882360       -1.5078314886
 H         -2.0675289984       -1.5822699989        0.1150013997
 H          3.7057804478       -1.9017549381        0.8701380815
 H          5.5711237822       -0.2715552458        0.6917634317
 H          5.0973510507        2.0585784660        0.0196662198
 H          2.7646052047        2.7479723908       -0.4725738089
  32
 Etot=  -51.4237686257 g norm=  0.00024302
 C         -5.0689363688        0.4117563288        1.7140458575
 C         -4.1948858973        0.5069005477        0.5022471785
 C         -4.9058297860        0.6088969944       -0.8163791063
 C         -2.8682720961        0.5023152773        0.5921088809
 C         -1.9421015909        0.6219234169       -0.5898448467
 C         -0.5281882371        0.2163169967       -0.2725713648
 C         -0.2360048101       -1.0091228967        0.2359248548
 O         -1.1502491016       -1.9506792645        0.4949871266
 C          1.1508985703       -1.4435369176        0.5509354938
 O          1.3752420026       -2.5615481108        0.9909019626
 C          2.2116264708       -0.4572894340        0.3012905462
 C          3.5332231957       -0.7903265841        0.5850189900
 C          4.5506397034        0.1224611349        0.3599997517
 C          4.2544560019        1.3764102999       -0.1505850978
 C          2.9415125860        1.7169220518       -0.4370854590
 C          1.9119136946        0.8094052185       -0.2162353220
 C          0.5215712882        1.1985561032       -0.5343572296
 O          0.2651085580        2.3057627674       -1.0024977026
 H         -4.4789246414        0.3041141193        2.6202993192
 H         -5.7400857379       -0.4415068879        1.6257849270
 H         -5.6819160257        1.3078102349        1.8013476306
 H         -5.9750548373        0.7244706841       -0.6670708128
 H         -4.7402994028       -0.2845092331       -1.4176102685
 H         -4.5381545269        1.4617094577       -1.3841071185
 H         -2.3924482133        0.4633373689        1.5631776176
 H         -1.9117234373        1.6618130932       -0.9326539243
 H         -2.3190385226        0.0233450954       -1.4254339248
 H         -2.0551716772       -1.6262368392        0.3339530374
 H          3.7377853597       -1.7733955940        0.9819209266
 H          5.5708982721       -0.1454346015        0.5836808426
 H          5.0433080203        2.0903934845       -0.3267575073
 H          2.6889506351        2.6880694721       -0.8359937491
  32
 Etot=  -51.4237199852 g norm=  0.00018741
 C         -4.9098152712        0.4254107808        1.7839892947
 C         -4.0844673136        0.2372111638        0.5457318664
 C         -4.8253596688       -0.3954817536       -0.5927859891
 C         -2.8161958751        0.6384187771        0.5043321869
 C         -1.8768866701        0.5712561233       -0.6679252251
 C         -0.4627396317        0.2466463241       -0.2586123253
 C         -0.1771442537       -0.8161524347        0.5379512758
 O         -1.0974161068       -1.6537643686        1.0274630169
 C          1.2089042027       -1.1721661308        0.9435675380
 O          1.4263014645       -2.1422594353        1.6542452713
 C          2.2769163610       -0.2970976788        0.4399431347
 C          3.5990403021       -0.5676198061        0.7818947297
 C          4.6231575699        0.2431742667        0.3207010396
 C          4.3333401772        1.3317386001       -0.4866171411
 C          3.0198714862        1.6092766769       -0.8324777752
 C          1.9834999702        0.8029822432       -0.3761296070
 C          0.5923759051        1.1237020488       -0.7607411535
 O          0.3395820434        2.0910099357       -1.4758135036
 H         -5.2556159782       -0.5371966432        2.1578041492
 H         -5.7897164603        1.0246869221        1.5560230892
 H         -4.3433878858        0.9213895787        2.5672857665
 H         -5.4142127014       -1.2372929182       -0.2341191261
 H         -4.1661948940       -0.7399085226       -1.3832696265
 H         -5.5149812840        0.3295576128       -1.0235387176
 H         -2.3920443853        1.1167907809        1.3790569556
 H         -1.8486605161        1.5436201958       -1.1704546553
 H         -2.2154499468       -0.1615561949       -1.4044983766
 H         -2.0018028491       -1.3467718548        0.8182881843
 H          3.7988354094       -1.4209208187        1.4124609157
 H          5.6438719225        0.0243502468        0.5911416096
 H          5.1274678306        1.9653721333       -0.8484469517
 H          2.7719222890        2.4525506538       -1.4596786966
  32
 Etot=  -51.4237340414 g norm=  0.00040501
 C         -5.0654145663       -0.6297392499       -1.0799277527
 C         -4.1419899939       -0.0429555810       -0.0537932795
 C         -4.7763909802        0.1765183909        1.2857661855
 C         -2.8839979596        0.2626202500       -0.3632433579
 C         -1.8571682482        0.9018286846        0.5297367349
 C         -0.4676058071        0.3641158890        0.2994749597
 C         -0.2139089271       -0.9700920765        0.2646104904
 O         -1.1460344697       -1.9152266851        0.4251964518
 C          1.1485947779       -1.5273603702        0.0498969434
 O          1.3353783084       -2.7345338899        0.0131508787
 C          2.2328541630       -0.5476621272       -0.1077252454
 C          3.5367888272       -0.9972558656       -0.2968243371
 C          4.5758505229       -0.0934768136       -0.4466518415
 C          4.3190704784        1.2679126499       -0.4099248221
 C          3.0237204184        1.7253036449       -0.2239114756
 C          1.9728584009        0.8282366603       -0.0711169696
 C          0.6014445454        1.3445485050        0.1250278753
 O          0.3760398365        2.5527939310        0.1420781889
 H         -4.5724273774       -0.7389397559       -2.0419551353
 H         -5.9370058667        0.0109412423       -1.2043367726
 H         -5.4197893895       -1.6068544412       -0.7548371860
 H         -5.3731382964       -0.6900933203        1.5634670282
 H         -5.4454469289        1.0346251847        1.2326333687
 H         -4.0493043165        0.3677490503        2.0686858360
 H         -2.5404713071        0.0928078779       -1.3767084059
 H         -2.1190498655        0.7792415278        1.5837076616
 H         -1.8189979799        1.9781572581        0.3323808402
 H         -2.0404401320       -1.5233734176        0.4812632212
 H          3.7107935729       -2.0625016812       -0.3219737495
 H          5.5823581183       -0.4522957642       -0.5914885055
 H          5.1249832086        1.9751734328       -0.5254363668
 H          2.8015798695        2.7815707716       -0.1927715928
  32
 Etot=  -51.4239661103 g norm=  0.00060948
 C         -4.5938162109        0.6953104616       -1.6216276402
 C         -3.7401827282        0.7730743285       -0.3923219261
 C         -3.7642303568        2.0924882020        0.3246331042
 C         -3.0376535495       -0.2743077789        0.0241972342
 C         -2.1456414653       -0.3087127250        1.2386573388
 C         -0.7085360910       -0.4189851898        0.7934212131
 C         -0.1425263217       -1.6070291435        0.4575481278
 O         -0.7673013859       -2.7896004941        0.5189612585
 C          1.2634037942       -1.7279193332       -0.0115403001
 O          1.7482902449       -2.8208682185       -0.2660400462
 C          2.0154027545       -0.4724973863       -0.1411594996
 C          3.3303371554       -0.5082838804       -0.5969516119
 C          4.0592053462        0.6622570498       -0.7282963238
 C          3.4787134876        1.8784015512       -0.4044185862
 C          2.1704185946        1.9237723363        0.0516893193
 C          1.4285786678        0.7559674892        0.1875474474
 C          0.0363967877        0.8337283526        0.6785554795
 O         -0.4666309427        1.9131172293        0.9801252136
 H         -5.6256821941        0.9390700548       -1.3733619883
 H         -4.5628822297       -0.2957057902       -2.0666670049
 H         -4.2490677782        1.4204788837       -2.3579345233
 H         -2.7541594692        2.4321352999        0.5481699948
 H         -4.3073096757        2.0064680669        1.2650112819
 H         -4.2557097736        2.8460092375       -0.2841079607
 H         -3.0561783918       -1.1857714872       -0.5594469497
 H         -2.4195755320       -1.1468737179        1.8844790681
 H         -2.2534518280        0.6115406288        1.8099435607
 H         -1.6755980399       -2.7063153723        0.8568880971
 H          3.7598032484       -1.4681747412       -0.8416880877
 H          5.0771990335        0.6234888298       -1.0818518495
 H          4.0423582639        2.7922257439       -0.5058787800
 H          1.7000904961        2.8607989865        0.3097137662
  32
 Etot=  -51.4203188428 g norm=  0.00032491
 C         -3.8973589690        1.7778575223       -1.4668004578
 C         -3.1524575540        0.7482607295       -0.6713718877
 C         -2.7213774506       -0.4583954340       -1.4544181127
 C         -2.8978838296        0.9250016877        0.6199805966
 C         -2.1423692276       -0.0408611633        1.4998954014
 C         -0.7490631651       -0.2784477493        0.9743729142
 C         -0.2198201797       -1.5118451221        0.7708396597
 O         -0.8257552698       -2.6720572871        1.0613058997
 C          1.1273948973       -1.7229131324        0.1743423763
 O          1.5694235645       -2.8508014603        0.0123206450
 C          1.8678164884       -0.5148697153       -0.2127445516
 C          3.1066059730       -0.6400932532       -0.8356230796
 C          3.8212879293        0.4871552662       -1.2058993687
 C          3.3054682126        1.7482906113       -0.9512879459
 C          2.0755103115        1.8824547800       -0.3261276260
 C          1.3469359738        0.7585526474        0.0456690496
 C          0.0364752086        0.9295549298        0.7089287927
 O         -0.3654193214        2.0423654671        1.0321362860
 H         -4.8370092833        1.3647288697       -1.8319049982
 H         -3.3062863282        2.0760201770       -2.3316761941
 H         -4.1106477519        2.6591488335       -0.8682959707
 H         -3.4136236549       -0.6407294976       -2.2727950810
 H         -2.6720623356       -1.3496870098       -0.8358929732
 H         -1.7319927791       -0.2928471832       -1.8833790132
 H         -3.2259598921        1.8342206394        1.1013684665
 H         -2.7032269890       -0.9759715100        1.5670041125
 H         -2.0684432550        0.3900882265        2.5002416601
 H         -1.6661861256       -2.5469508448        1.5344165351
 H          3.4886469893       -1.6331803521       -1.0186152677
 H          4.7789754255        0.3801364359       -1.6898850466
 H          3.8597919264        2.6282559423       -1.2367191505
 H          1.6562822386        2.8549659942       -0.1154714477
  32
 Etot=  -51.4239599014 g norm=  0.00058994
 C         -4.4522753570        1.1364386850        1.7681036229
 C         -3.6495686297        0.9673625512        0.5138466790
 C         -3.6611564284        2.1438611252       -0.4196972953
 C         -2.9996055197       -0.1631593621        0.2604297177
 C         -2.1603702566       -0.4396086516       -0.9608018628
 C         -0.7069865360       -0.5006879391       -0.5602778962
 C         -0.1494250095       -1.6172903624       -0.0243564326
 O         -0.8008348927       -2.7709921522        0.1690908644
 C          1.2739664858       -1.6858880354        0.3997531030
 O          1.7496826252       -2.7239811087        0.8364297174
 C          2.0542951756       -0.4490164479        0.2585831019
 C          3.3864197979       -0.4320273911        0.6625073466
 C          4.1420647835        0.7223510554        0.5391112225
 C          3.5711923399        1.8693769859        0.0107516143
 C          2.2458646289        1.8615772193       -0.3954888790
 C          1.4772139036        0.7092593085       -0.2769695549
 C          0.0670448346        0.7294150292       -0.7198673398
 O         -0.4270397277        1.7439538369       -1.2053924155
 H         -5.4846123563        1.3773975680        1.5190155567
 H         -4.0509878020        1.9614954579        2.3554737791
 H         -4.4375012107        0.2358550461        2.3761954994
 H         -2.6517067261        2.3975874053       -0.7396504559
 H         -4.0975130687        3.0110030773        0.0677245425
 H         -4.2502197000        1.9200344707       -1.3083000573
 H         -3.0241676880       -0.9595266683        0.9931936147
 H         -2.2778579352        0.3629278412       -1.6867016591
 H         -2.4746692729       -1.3751161956       -1.4305835763
 H         -1.7208041265       -2.7252619522       -0.1432056241
 H          3.8076412421       -1.3386192812        1.0703307103
 H          5.1730714449        0.7250131234        0.8550703012
 H          4.1558659113        2.7703257118       -0.0871084356
 H          1.7832515195        2.7435402791       -0.8128891350
  32
 Etot=  -51.4237602354 g norm=  0.00054340
 C         -5.0989039845       -0.3392044429        1.4974375097
 C         -4.1961837844        0.1828922977        0.4234243430
 C         -4.8734191255        0.7024566381       -0.8119106847
 C         -2.8734792687        0.1876314769        0.5599910183
 C         -1.9196128205        0.7223201523       -0.4755636434
 C         -0.5066522594        0.2431798500       -0.2788610859
 C         -0.2094792591       -1.0795169779       -0.1900652147
 O         -1.1180125911       -2.0579925471       -0.2702207519
 C          1.1758699326       -1.5859936419       -0.0019275149
 O          1.4036066433       -2.7848999874        0.0653583134
 C          2.2307833364       -0.5672320618        0.0956100473
 C          3.5512235337       -0.9676127613        0.2806890855
 C          4.5628834305       -0.0263337700        0.3773738277
 C          4.2622993886        1.3236764129        0.2890263167
 C          2.9505903011        1.7320896518        0.1036453959
 C          1.9265096133        0.7971589370        0.0058689008
 C          0.5370480859        1.2620416838       -0.1918694100
 O          0.2766060870        2.4599601216       -0.2817304263
 H         -5.7648310466        0.4510810138        1.8409651373
 H         -4.5315268535       -0.7104446959        2.3467302009
 H         -5.7166908788       -1.1460888774        1.1055793551
 H         -4.6227972731        0.0930071594       -1.6797669915
 H         -4.5533145227        1.7219871199       -1.0211937968
 H         -5.9524736584        0.6941549032       -0.6894828586
 H         -2.4243676024       -0.1586607569        1.4814740756
 H         -1.8997563744        1.8166156921       -0.4334049313
 H         -2.2634625117        0.4501200736       -1.4786964311
 H         -2.0232917546       -1.7008764082       -0.3344307984
 H          3.7595862819       -2.0249343421        0.3467780429
 H          5.5823073736       -0.3471810634        0.5209490637
 H          5.0466992139        2.0599606117        0.3634917496
 H          2.6944056214        2.7785948493        0.0314787160
  32
 Etot=  -51.4237095533 g norm=  0.00050743
 C         -4.9727472398       -0.3818894622        1.5607729077
 C         -4.1099531058       -0.0312689368        0.3854883575
 C         -4.8168232831       -0.0847449182       -0.9347857672
 C         -2.8363531641        0.3180397926        0.5518364479
 C         -1.8696648475        0.7446452314       -0.5177005962
 C         -0.4565525521        0.2969113997       -0.2446995677
 C         -0.1649253657       -0.9863037456        0.0931101892
 O         -1.0783535019       -1.9547368949        0.2192904865
 C          1.2219644286       -1.4583263701        0.3505214236
 O          1.4434474042       -2.6199984706        0.6587668933
 C          2.2862283480       -0.4552247690        0.2057783567
 C          3.6102723659       -0.8296855776        0.4172467183
 C          4.6314429634        0.0964635723        0.2822096360
 C          4.3364318252        1.4056306122       -0.0638872105
 C          3.0206941482        1.7887999100       -0.2732555896
 C          1.9873485323        0.8683189382       -0.1418615122
 C          0.5934214989        1.3054655495       -0.3692500740
 O          0.3342328444        2.4728323377       -0.6538147153
 H         -5.3194814829       -1.4112830114        1.4796945724
 H         -5.8514120037        0.2605592752        1.5809078111
 H         -4.4344211005       -0.2676190290        2.4976252488
 H         -5.4074555423        0.8212282814       -1.0665679123
 H         -5.4990402747       -0.9315967735       -0.9608679480
 H         -4.1314633774       -0.1603207944       -1.7735630747
 H         -2.4339244679        0.3640900217        1.5567008557
 H         -1.8513952309        1.8376462494       -0.5820255707
 H         -2.1797265511        0.3729655739       -1.4979491140
 H         -1.9851597360       -1.6000921513        0.1251140892
 H          3.8136548765       -1.8555035096        0.6854221007
 H          5.6538940998       -0.2048154883        0.4455252605
 H          5.1285436132        2.1295385145       -0.1720760764
 H          2.7687645858        2.8039400477       -0.5416743287
  32
 Etot=  -51.4249663388 g norm=  0.00059575
 C         -4.8348353181       -0.7960620706        0.7963820003
 C         -3.5750886267       -0.0494238332        0.4806950561
 C         -2.6670206599        0.1850367820        1.6498162919
 C         -3.2948676618        0.3464207404       -0.7585144572
 C         -2.0695288013        1.1185091042       -1.1757404595
 C         -0.7605207077        0.5002127758       -0.7497124199
 C         -0.4969009914       -0.8215657962       -0.9192039495
 O         -1.3524387127       -1.6953875431       -1.4602773665
 C          0.7917167432       -1.4459724802       -0.5187787039
 O          0.9812139782       -2.6447733399       -0.6641292838
 C          1.8052125299       -0.5420857696        0.0433296181
 C          3.0488419265       -1.0511548057        0.4066168352
 C          4.0210309920       -0.2173526999        0.9345691981
 C          3.7561832304        1.1321026663        1.1061643153
 C          2.5190628775        1.6474698143        0.7510291720
 C          1.5365498107        0.8212326655        0.2177133917
 C          0.2251422455        1.3965877020       -0.1481949065
 O         -0.0220694808        2.5840395762        0.0525363718
 H         -5.4198536298       -0.9868965996       -0.0988390930
 H         -5.4427687043       -0.2219626372        1.4940098995
 H         -4.5943757161       -1.7456407641        1.2719919016
 H         -2.0382184346        1.0595224998        1.5025313355
 H         -2.0166698079       -0.6785037777        1.7984472172
 H         -3.2500986433        0.3218768723        2.5572924570
 H         -4.0174738622        0.1596052982       -1.5415890715
 H         -2.0962324096        2.1278372103       -0.7519215030
 H         -2.0669632842        1.2307884193       -2.2632423965
 H         -2.2144361336       -1.2757252287       -1.6479645662
 H          3.2302389384       -2.1060045139        0.2644928251
 H          4.9823091128       -0.6211194003        1.2097619302
 H          4.5107422513        1.7850315531        1.5153596158
 H          2.2911735044        2.6952683546        0.8783703950
  32
 Etot=  -51.4203624330 g norm=  0.00047682
 C         -3.7998954918        2.0166010697        1.4645660951
 C         -3.1269809493        0.8671166250        0.7767784741
 C         -2.7508914536       -0.2726538097        1.6787393040
 C         -2.8885383794        0.8896331425       -0.5297672003
 C         -2.2008828728       -0.2048536863       -1.3095162174
 C         -0.7840585382       -0.3821712558       -0.8249159416
 C         -0.2801036698       -1.5571862810       -0.3684897261
 O         -0.9363933817       -2.7260059385       -0.3534158229
 C          1.0936546713       -1.6832040193        0.1892929649
 O          1.5065768786       -2.7591406132        0.5964437466
 C          1.8998809371       -0.4560916629        0.2262254274
 C          3.1791360069       -0.4935201457        0.7743563411
 C          3.9580421132        0.6510258658        0.8136575459
 C          3.4651528923        1.8411456510        0.3020635246
 C          2.1939609866        1.8868002801       -0.2489085576
 C          1.4016044770        0.7454795220       -0.2911910698
 C          0.0478807855        0.8224394482       -0.8813795481
 O         -0.3519076458        1.8554087321       -1.4087660024
 H         -3.9744706153        2.8396493808        0.7773573057
 H         -3.1795331245        2.3709001465        2.2863580471
 H         -4.7546907467        1.6984525210        1.8814371265
 H         -3.4084142696       -0.2995829925        2.5440045557
 H         -1.7285853641       -0.1461493495        2.0379442635
 H         -2.8082502457       -1.2303711296        1.1697373497
 H         -3.1692911641        1.7614938833       -1.1014861807
 H         -2.1745862636        0.0845566646       -2.3614532153
 H         -2.7746370801       -1.1295932674       -1.2188170025
 H         -1.7952591682       -2.6729386872       -0.8062251743
 H          3.5412178578       -1.4334180803        1.1629615553
 H          4.9469997363        0.6126122577        1.2418223430
 H          4.0688655979        2.7343044996        0.3303950305
 H          1.7908234536        2.8030113133       -0.6536552473
  32
 Etot=  -51.4236883376 g norm=  0.00043297
 C         -4.9835780061       -0.6064251191        1.5764589997
 C         -4.1389796375        0.0013908460        0.4962348575
 C         -4.8841975718        0.2979684734       -0.7692214350
 C         -2.8496429149        0.2589861249        0.7011905136
 C         -1.8892732598        0.9074407549       -0.2578027290
 C         -0.4902336609        0.3599410617       -0.1359013201
 C         -0.2419617967       -0.9752577631       -0.1723549507
 O         -1.1893572911       -1.9086536822       -0.3114708034
 C          1.1286194293       -1.5449409045       -0.0768713200
 O          1.3141217127       -2.7511087307       -0.1422981200
 C          2.2219245329       -0.5779183612        0.0955142814
 C          3.5292857699       -1.0404708374        0.2179959355
 C          4.5763702824       -0.1489281071        0.3844262396
 C          4.3247387296        1.2132482400        0.4274494352
 C          3.0264011880        1.6835273998        0.3052107245
 C          1.9670580861        0.7988016176        0.1395563445
 C          0.5924143593        1.3290065438        0.0160858099
 O          0.3749901442        2.5384769147        0.0429440927
 H         -5.8303788855        0.0417615710        1.7953093809
 H         -4.4137029990       -0.7565515747        2.4892313976
 H         -5.3803969716       -1.5665984345        1.2498754421
 H         -5.5214307217        1.1684799497       -0.6176671084
 H         -5.5276005429       -0.5401659088       -1.0294771998
 H         -4.2245010272        0.5081319012       -1.6052031449
 H         -2.4217721562        0.0381925537        1.6716844653
 H         -1.8316344399        1.9810482951       -0.0505599899
 H         -2.2294860436        0.7974920139       -1.2907608296
 H         -2.0818882214       -1.5105635411       -0.2919516861
 H          3.6994801251       -2.1058931442        0.1789675538
 H          5.5852139200       -0.5178063022        0.4789888200
 H          5.1367880174        1.9109736611        0.5568542710
 H          2.8082079308        2.7406331145        0.3359575303
  32
 Etot=  -51.4239757986 g norm=  0.00027020
 C         -4.5669662520        0.4748378714       -1.8436894574
 C         -3.7196337431        0.6941085732       -0.6271513648
 C         -3.7443037063        2.0878235699       -0.0685476815
 C         -3.0213092803       -0.2989625189       -0.0879564511
 C         -2.1364043486       -0.1928105439        1.1276049887
 C         -0.6971222867       -0.3553352752        0.7063914527
 C         -0.1291401080       -1.5742279509        0.5153953775
 O         -0.7534620062       -2.7422116081        0.7137581388
 C          1.2775673520       -1.7481125431        0.0664207898
 O          1.7633007221       -2.8629067081       -0.0588529472
 C          2.0303060955       -0.5159810913       -0.2055738537
 C          3.3469672786       -0.6040931703       -0.6489662026
 C          4.0765040225        0.5435330099       -0.9126125323
 C          3.4950432280        1.7888896956       -0.7344229401
 C          2.1850115322        1.8866038909       -0.2917718741
 C          1.4424394133        0.7421826250       -0.0242078570
 C          0.0480891396        0.8758365996        0.4476445652
 O         -0.4558515590        1.9828217337        0.6205159428
 H         -4.5344059835       -0.5611384069       -2.1709261249
 H         -4.2177061257        1.1094665269       -2.6571790650
 H         -5.5999561528        0.7455370541       -1.6310665606
 H         -4.2358520720        2.7653916945       -0.7609197671
 H         -2.7341896058        2.4512759732        0.1136312736
 H         -4.2869836850        2.1120045888        0.8756278052
 H         -3.0388369077       -1.2723492658       -0.5610147161
 H         -2.4161730063       -0.9495618242        1.8647730059
 H         -2.2458710977        0.7878984162        1.5869933840
 H         -1.6616671868       -2.6201343523        1.0400062443
 H          3.7766531948       -1.5858444441       -0.7805349414
 H          5.0954368229        0.4641655387       -1.2566865900
 H          4.0593665399        2.6848354201       -0.9390949323
 H          1.7135647354        2.8470394300       -0.1461638966
  32
 Etot=  -51.4239574430 g norm=  0.00017132
 C         -4.4024760919        1.3346146192        1.7679432030
 C         -3.6163976681        1.0595937165        0.5219933983
 C         -3.6325113678        2.1571186332       -0.5029064202
 C         -2.9778244522       -0.0927721317        0.3525982805
 C         -2.1566588286       -0.4742000598       -0.8524991190
 C         -0.6981222264       -0.5119644669       -0.4676643381
 C         -0.1424624540       -1.5794356472        0.1619662677
 O         -0.7998712845       -2.7052148263        0.4675432372
 C          1.2838480272       -1.6191617894        0.5797155455
 O          1.7523688114       -2.6104273056        1.1204825152
 C          2.0764847859       -0.4141413702        0.3001130577
 C          3.4170523115       -0.3768749777        0.6734259761
 C          4.1850460463        0.7474910324        0.4189550659
 C          3.6178611779        1.8444501212       -0.2100654362
 C          2.2837630687        1.8165173833       -0.5855499035
 C          1.5028736328        0.6936136483       -0.3364877349
 C          0.0837416165        0.6906784052       -0.7501245509
 O         -0.4107789289        1.6635953601       -1.3140750453
 H         -5.4377670472        1.5559259182        1.5129517156
 H         -3.9930650234        2.2048443830        2.2796290726
 H         -4.3805267708        0.4875133016        2.4483405805
 H         -4.2414388880        1.8704675962       -1.3594673222
 H         -2.6269341782        2.3714164844       -0.8611094966
 H         -4.0495389802        3.0659161106       -0.0784675272
 H         -2.9979173982       -0.8263726930        1.1482416501
 H         -2.2797856003        0.2664258840       -1.6406995617
 H         -2.4827661504       -1.4430350176       -1.2392577945
 H         -1.7220182638       -2.6826113878        0.1592025844
 H          3.8349993645       -1.2440232902        1.1624618051
 H          5.2227706508        0.7658730764        0.7116644853
 H          4.2120130582        2.7219741088       -0.4099580038
 H          1.8229705286        2.6603019196       -1.0770225304
  32
 Etot=  -51.4237422124 g norm=  0.00031383
 C         -4.9676232898        0.0266895604        1.7204748266
 C         -4.1333544345        0.2180831120        0.4886428904
 C         -4.8961941841        0.0850996003       -0.7941145079
 C         -2.8379854099        0.5071321161        0.5800890370
 C         -1.8869469384        0.7844669126       -0.5519862545
 C         -0.4864383914        0.3100694335       -0.2606207940
 C         -0.2334344718       -0.9619900471        0.1435026308
 O         -1.1749262548       -1.8954981866        0.3166642269
 C          1.1386413184       -1.4609773481        0.4284263234
 O          1.3264612095       -2.6147113437        0.7850540731
 C          2.2305685043       -0.4933187305        0.2519162068
 C          3.5414254482       -0.8906712978        0.5005576778
 C          4.5877796866        0.0028539951        0.3404246156
 C          4.3315643791        1.3018969272       -0.0688424344
 C          3.0294196283        1.7072492517       -0.3177534966
 C          1.9710856613        0.8196104061       -0.1615788970
 C          0.5927483973        1.2797691225       -0.4339182439
 O          0.3696185410        2.4342152308       -0.7922028362
 H         -5.4181227488       -0.9646260201        1.7229818453
 H         -5.7765471752        0.7553450447        1.7367986556
 H         -4.3749898004        0.1443845455        2.6234994656
 H         -5.5326813840       -0.7970888692       -0.7611787022
 H         -4.2486399659        0.0197144286       -1.6626020610
 H         -5.5426693541        0.9525428114       -0.9219968918
 H         -2.3958877639        0.6149454123        1.5632502198
 H         -1.8286120545        1.8643075328       -0.7246179651
 H         -2.2365411397        0.3292388742       -1.4820456425
 H         -2.0706321730       -1.5275655257        0.1905753020
 H          3.7147671051       -1.9076837626        0.8188910692
 H          5.5995291250       -0.3155236808        0.5348806579
 H          5.1431060990        2.0007998442       -0.1951282121
 H          2.8075266597        2.7147338811       -0.6367251147
  32
 Etot=  -51.4237191904 g norm=  0.00035203
 C         -4.8850035572        0.2972916545        1.8714772729
 C         -4.0665166062        0.2214286381        0.6166173575
 C         -4.8202166072       -0.2896320735       -0.5729350953
 C         -2.7928600025        0.6071316624        0.6097585205
 C         -1.8546977757        0.6383129682       -0.5653613928
 C         -0.4430206660        0.2684750597       -0.1876017509
 C         -0.1660898299       -0.8588963316        0.5182146608
 O         -1.0934811949       -1.7269923457        0.9356726980
 C          1.2164642392       -1.2559092255        0.8964230384
 O          1.4246786757       -2.2763366444        1.5359253806
 C          2.2927145719       -0.3571405484        0.4558562939
 C          3.6131367258       -0.6695408555        0.7671863064
 C          4.6449457126        0.1618832410        0.3633646958
 C          4.3643772000        1.3135107270       -0.3547641676
 C          3.0525536799        1.6337438122       -0.6684521813
 C          2.0086081346        0.8069323880       -0.2697357227
 C          0.6195013621        1.1740513124       -0.6183673812
 O          0.3743377936        2.2012269794       -1.2474044449
 H         -4.3030239702        0.6861502511        2.7024311486
 H         -5.2608257654       -0.6892510778        2.1381715415
 H         -5.7458555025        0.9452971170        1.7151640222
 H         -5.3542139140       -1.2017840194       -0.3130717751
 H         -4.1777483123       -0.4886857115       -1.4246520943
 H         -5.5608253934        0.4496006360       -0.8755470715
 H         -2.3607738353        0.9924369119        1.5255770831
 H         -1.8195427215        1.6510756065       -0.9801075391
 H         -2.1983681978       -0.0247941289       -1.3631688688
 H         -1.9948864159       -1.3975060806        0.7481688548
 H          3.8054580308       -1.5717563182        1.3281389055
 H          5.6642405650       -0.0896298985        0.6094954971
 H          5.1644580693        1.9637920264       -0.6710750483
 H          2.8119031948        2.5267049263       -1.2258510405
  32
 Etot=  -51.4237441852 g norm=  0.00024531
 C         -5.1473967802       -0.4897710898        1.1716175246
 C         -4.2241530395        0.2195240736        0.2303750808
 C         -4.8793086034        0.9636385745       -0.8975496583
 C         -2.9043951730        0.1922528787        0.3908791250
 C         -1.9261039405        0.9101596931       -0.5009112001
 C         -0.5273379213        0.3643893934       -0.3965291159
 C         -0.2604161170       -0.9526067106       -0.5963688100
 O         -1.1878962016       -1.8673345355       -0.9005053785
 C          1.1106537320       -1.5216808006       -0.5087201314
 O          1.3122319802       -2.7105778090       -0.7079242972
 C          2.1848195005       -0.5760197075       -0.1740207708
 C          3.4928916984       -1.0399276300       -0.0654561088
 C          4.5225088212       -0.1685542610        0.2499829356
 C          4.2523250091        1.1746167129        0.4588226346
 C          2.9530237026        1.6460923726        0.3524068169
 C          1.9111891887        0.7814388802        0.0371878042
 C          0.5353144890        1.3121524140       -0.0684094400
 O          0.3008139059        2.5050551528        0.1127690161
 H         -5.8063120441        0.2287651304        1.6572570980
 H         -4.5955784044       -1.0287023496        1.9371999772
 H         -5.7719532226       -1.1942530382        0.6240588610
 H         -5.9595615575        0.9479270924       -0.7895613737
 H         -4.6259701747        0.5173464333       -1.8586044203
 H         -4.5457782053        1.9999006999       -0.9160351469
 H         -2.4743245462       -0.3267219368        1.2374759295
 H         -1.8814783533        1.9693329062       -0.2252633783
 H         -2.2618430346        0.8661949581       -1.5416484123
 H         -2.0845129026       -1.4841580908       -0.8927401143
 H          3.6773893964       -2.0904374832       -0.2331479236
 H          5.5321436091       -0.5383127138        0.3318096302
 H          5.0508120255        1.8567192268        0.7041277297
 H          2.7205891088        2.6886600564        0.5107397209
  32
 Etot=  -51.4237438381 g norm=  0.00037263
 C         -4.7012078319        0.1826553936        2.0716487175
 C         -3.9367338181        0.0559528704        0.7873984869
 C         -4.7240813117       -0.5434548788       -0.3377582466
 C         -2.6781291905        0.4784878347        0.6977037976
 C         -1.8023912235        0.4709488883       -0.5247919020
 C         -0.3545031384        0.2059493695       -0.2002258218
 C          0.0241556261       -0.8542186646        0.5602940488
 O         -0.8264421259       -1.7431041516        1.0843745892
 C          1.4457991762       -1.1485967464        0.8843205459
 O          1.7473344508       -2.1146425365        1.5694468614
 C          2.4426482812       -0.2195397102        0.3336841452
 C          3.7931603103       -0.4343547807        0.5946326843
 C          4.7515685112        0.4276022494        0.0873436071
 C          4.3670261469        1.5123182825       -0.6848290933
 C          3.0245823385        1.7348319031       -0.9496756056
 C          2.0535142503        0.8764866094       -0.4469302406
 C          0.6294354081        1.1383271179       -0.7456790012
 O          0.2924913496        2.1033476620       -1.4284098276
 H         -5.0108748803       -0.7994694916        2.4260255771
 H         -5.6018886914        0.7727640626        1.9104963366
 H         -4.1045730037        0.6605395239        2.8437765057
 H         -5.2940718093       -1.3990579219        0.0185202378
 H         -4.0982101558       -0.8585243069       -1.1667159059
 H         -5.4338173815        0.1920750724       -0.7145856877
 H         -2.2165410414        0.9311095276        1.5670892464
 H         -1.8463008481        1.4502372347       -1.0127531629
 H         -2.1486131458       -0.2661635169       -1.2537386817
 H         -1.7549616394       -1.4828760676        0.9256030146
 H          4.0669758499       -1.2857850368        1.1994394649
 H          5.7949822674        0.2520870348        0.2955491548
 H          5.1097405515        2.1861311758       -1.0815534573
 H          2.7033029452        2.5739051336       -1.5486358552
  32
 Etot=  -51.4237243391 g norm=  0.00020998
 C         -4.9943833319       -0.4018633712        1.6085891758
 C         -4.1385781529        0.0641435951        0.4683696158
 C         -4.8570235105        0.1422571694       -0.8443504372
 C         -2.8637354805        0.3934757681        0.6629259199
 C         -1.8934527414        0.9229163558       -0.3562917601
 C         -0.4997089367        0.3809302641       -0.1645485280
 C         -0.2636391513       -0.9510890943       -0.0390386891
 O         -1.2184568150       -1.8868927732       -0.0676195064
 C          1.1012763432       -1.5166497338        0.1326327276
 O          1.2743700352       -2.7223975248        0.2309638270
 C          2.2048150181       -0.5467239718        0.1725456185
 C          3.5094625879       -1.0039811213        0.3368132890
 C          4.5662403839       -0.1094334103        0.3804066005
 C          4.3268555469        1.2502931256        0.2595272087
 C          3.0312227643        1.7151608205        0.0949640775
 C          1.9624021220        0.8274358603        0.0500381758
 C          0.5912031298        1.3519969951       -0.1249181084
 O          0.3833127190        2.5587373334       -0.2323927036
 H         -4.4428867750       -0.4028570681        2.5447307177
 H         -5.3617716242       -1.4091596537        1.4176599048
 H         -5.8604046632        0.2495733191        1.7135641565
 H         -5.5045300905        1.0183726674       -0.8509932030
 H         -5.4873351519       -0.7344309400       -0.9786422957
 H         -4.1802409084        0.2207082252       -1.6894576207
 H         -2.4562076632        0.3313448656        1.6649044297
 H         -1.8273530362        2.0122195229       -0.2681132185
 H         -2.2284694138        0.7027509162       -1.3729119124
 H         -2.1083335160       -1.4821568320       -0.0925317845
 H          3.6695787189       -2.0677852932        0.4290959353
 H          5.5729901183       -0.4740564445        0.5085121969
 H          5.1465071122        1.9503649278        0.2933737732
 H          2.8225199329        2.7702970254       -0.0010490108
  32
 Etot=  -51.4237281332 g norm=  0.00016418
 C         -4.8150386993        0.7037574428        1.8994397579
 C         -4.0196572649        0.2896886742        0.6974150958
 C         -4.7853299612       -0.5338088513       -0.2934389037
 C         -2.7526733012        0.6698336459        0.5507169623
 C         -1.8547527284        0.3846721348       -0.6209896353
 C         -0.4130198149        0.1958875057       -0.2243079037
 C         -0.0497077350       -0.6474617730        0.7769584957
 O         -0.9113812435       -1.3732432734        1.4974214665
 C          1.3670485910       -0.8657370601        1.1743453616
 O          1.6543420845       -1.6340687891        2.0802422859
 C          2.3773502834       -0.1151186617        0.4156764158
 C          3.7243873277       -0.2760303322        0.7282101561
 C          4.6952882941        0.4192288636        0.0261443957
 C          4.3267524871        1.2822277285       -0.9937284980
 C          2.9878067291        1.4503171582       -1.3111525461
 C          2.0043447763        0.7573132042       -0.6146930483
 C          0.5843243649        0.9556974587       -0.9749776571
 O          0.2613077149        1.7294425105       -1.8738133432
 H         -5.1432352078       -0.1733584136        2.4555645273
 H         -5.7055268465        1.2459309616        1.5856444572
 H         -4.2336323215        1.3399209585        2.5611837862
 H         -5.4409719135       -1.2300017340        0.2249365847
 H         -4.1373492818       -1.0931690497       -0.9615156246
 H         -5.4096007372        0.1190702189       -0.9025971810
 H         -2.3041456177        1.2995058576        1.3098055930
 H         -1.8853694672        1.2272683417       -1.3198197925
 H         -2.1942154442       -0.4971910828       -1.1706590950
 H         -1.8367174870       -1.1551811684        1.2699693234
 H          3.9854820411       -0.9536476037        1.5271922487
 H          5.7358903967        0.2872542572        0.2760130719
 H          5.0793594551        1.8252351280       -1.5430668373
 H          2.6788873062        2.1185159461       -2.1011512474
  32
 Etot=  -51.4237420185 g norm=  0.00050731
 C         -4.7046328804        0.3395125778        2.1111995134
 C         -3.9420645771        0.1348178196        0.8359534487
 C         -4.7310540864       -0.5305270723       -0.2504669010
 C         -2.6830666834        0.5496846918        0.7192746448
 C         -1.8099475236        0.4697101914       -0.5022370356
 C         -0.3629223751        0.2129569368       -0.1670042372
 C          0.0106680568       -0.8049048657        0.6515579869
 O         -0.8447925792       -1.6548284139        1.2294015734
 C          1.4316657963       -1.0932546802        0.9842475493
 O          1.7293389617       -2.0277284308        1.7133641943
 C          2.4325977673       -0.1982702979        0.3865409459
 C          3.7818986832       -0.4026919579        0.6617132861
 C          4.7438727319        0.4294515451        0.1129524286
 C          4.3641683364        1.4729266072       -0.7163424282
 C          3.0230152204        1.6839528809       -0.9969434513
 C          2.0484063342        0.8558446046       -0.4521495108
 C          0.6257522989        1.1055183953       -0.7677005836
 O          0.2936439119        2.0299441470       -1.5066240023
 H         -4.1098265541        0.8711571751        2.8489724761
 H         -5.0059465370       -0.6197670691        2.5298908212
 H         -5.6101091755        0.9111178501        1.9139881283
 H         -5.4261287112        0.1869424869       -0.6848777576
 H         -5.3168493389       -1.3497709582        0.1608747342
 H         -4.1042201591       -0.9136627650       -1.0495292661
 H         -2.2197635599        1.0527384428        1.5595070835
 H         -1.8484049344        1.4216078610       -1.0422612484
 H         -2.1628578307       -0.3031965715       -1.1898342136
 H         -1.7717854352       -1.3934851490        1.0623922329
 H          4.0518993344       -1.2219360524        1.3110714331
 H          5.7862723938        0.2625396866        0.3329535382
 H          5.1095837465        2.1235666268       -1.1454079580
 H          2.7057144534        2.4909221443       -1.6404576765
  32
 Etot=  -51.4237037197 g norm=  0.00048022
 C         -4.8785636492        0.4076694023       -1.7157222452
 C         -4.0294629214        0.1473038938       -0.5072237805
 C         -4.7414517893       -0.5663133102        0.6017401729
 C         -2.7650689867        0.5596804167       -0.4583597570
 C         -1.8143478567        0.4283934144        0.6992099884
 C         -0.3894722883        0.2036743044        0.2621997870
 C         -0.0608341755       -0.7659636675       -0.6307990842
 O         -0.9452949826       -1.5918603891       -1.1997626691
 C          1.3384678486       -1.0234956905       -1.0649612136
 O          1.5947876181       -1.9101148870       -1.8660870385
 C          2.3703201835       -0.1595763085       -0.4743286037
 C          3.7027429273       -0.3446366415       -0.8329160787
 C          4.6930629119        0.4588300560       -0.2921097009
 C          4.3587899230        1.4549931823        0.6116120545
 C          3.0348635491        1.6466077348        0.9752540961
 C          2.0322006117        0.8459194979        0.4403757167
 C          0.6291300962        1.0723036224        0.8477472269
 O          0.3372243575        1.9575278465        1.6490608914
 H         -5.7665308582        0.9696469925       -1.4303865756
 H         -5.2110515616       -0.5324775080       -2.1539750701
 H         -4.3352768821        0.9716704137       -2.4690722083
 H         -5.3744167867        0.1386062930        1.1395384606
 H         -4.0590796802       -1.0141154420        1.3175880021
 H         -5.3840850222       -1.3437978724        0.1947040444
 H         -2.3592328374        1.1012255482       -1.3042245731
 H         -2.1177000511       -0.3815163267        1.3676938049
 H         -1.8258184503        1.3513333812        1.2884225360
 H         -1.8614093606       -1.3507310182       -0.9590414400
 H          3.9371476234       -1.1265320659       -1.5395570912
 H          5.7220617109        0.3070459884       -0.5765755711
 H          5.1265190379        2.0831983675        1.0346964550
 H          2.7526598659        2.4163793432        1.6779797122
  32
 Etot=  -51.4237227200 g norm=  0.00024786
 C         -5.0241087510        0.2819029064       -1.6775821326
 C         -4.1612725967        0.3114689731       -0.4516361573
 C         -4.8912497899        0.0221334748        0.8249014068
 C         -2.8661265936        0.6062432531       -0.5332607608
 C         -1.8951116600        0.7288788754        0.6085183148
 C         -0.4992938452        0.3016559793        0.2341517819
 C         -0.2559524136       -0.8867902047       -0.3775873485
 O         -1.2043381500       -1.7732067017       -0.6985440496
 C          1.1112637931       -1.3374340827       -0.7518743755
 O          1.2888770313       -2.4112033671       -1.3078526835
 C          2.2111008177       -0.4234168012       -0.4128971952
 C          3.5187850775       -0.7831647825       -0.7270212685
 C          4.5724534974        0.0610659508       -0.4173919850
 C          4.3267668576        1.2732522598        0.2079804959
 C          3.0277864982        1.6411451862        0.5228846263
 C          1.9621415344        0.8019217593        0.2185345083
 C          0.5872069565        1.2206582553        0.5652567202
 O          0.3727054890        2.3001004696        1.1127081448
 H         -4.4612280892        0.5538988438       -2.5663590870
 H         -5.8550293211        0.9762164612       -1.5630061266
 H         -5.4439778569       -0.7129741693       -1.8199757733
 H         -5.4054094588        0.9220836538        1.1609022681
 H         -4.2277159007       -0.2992307344        1.6220495805
 H         -5.6427813143       -0.7471530022        0.6613745777
 H         -2.4432753178        0.8406399752       -1.5027958067
 H         -2.2303730363        0.1492205145        1.4728306945
 H         -1.8345427117        1.7740802703        0.9297446724
 H         -2.0970805390       -1.4202077150       -0.5144649762
 H          3.6839844049       -1.7323736469       -1.2143570875
 H          5.5817404812       -0.2283539978       -0.6631284856
 H          5.1438919234        1.9340172890        0.4500562884
 H          2.8140279615        2.5816735785        1.0084901060
  32
 Etot=  -51.4236979443 g norm=  0.00062186
 C         -4.8313833567        0.4494041715       -1.8671874785
 C         -4.0037111261        0.1811436048       -0.6455797279
 C         -4.7323220939       -0.5494422229        0.4412013175
 C         -2.7426878420        0.5995405259       -0.5697355165
 C         -1.8093472796        0.4604563813        0.6009890323
 C         -0.3808190636        0.2250919099        0.1811801757
 C         -0.0490775360       -0.7503417558       -0.7043564680
 O         -0.9331011677       -1.5736722951       -1.2779737476
 C          1.3524280549       -1.0162711068       -1.1255917246
 O          1.6110972709       -1.9034355298       -1.9252478642
 C          2.3839115600       -0.1585297779       -0.5249715207
 C          3.7188443530       -0.3545214920       -0.8678433454
 C          4.7093139515        0.4409495373       -0.3154795625
 C          4.3725444452        1.4404944772        0.5834823636
 C          3.0458605753        1.6440024827        0.9303254166
 C          2.0431018087        0.8510934767        0.3841785510
 C          0.6368795817        1.0901368313        0.7734566323
 O          0.3419857722        1.9816517819        1.5666323170
 H         -4.2770197274        1.0231607919       -2.6047510131
 H         -5.7270681608        1.0044566561       -1.5934677278
 H         -5.1511757111       -0.4877237155       -2.3208228626
 H         -5.3539812398       -1.3327686484        0.0128876239
 H         -5.3883696768        0.1430522624        0.9671227843
 H         -4.0617837314       -0.9929703501        1.1707754163
 H         -2.3246979789        1.1504384057       -1.4034496946
 H         -2.1277711209       -0.3468076966        1.2655045280
 H         -1.8210376427        1.3839277540        1.1891332819
 H         -1.8498169170       -1.3242167824       -1.0481536081
 H          3.9554597231       -1.1386405662       -1.5712455927
 H          5.7401989684        0.2808510308       -0.5882169565
 H          5.1401715915        2.0630068412        1.0148798146
 H          2.7616065748        2.4172189764        1.6284238412
  32
 Etot=  -51.4236806774 g norm=  0.00025891
 C         -5.0931470992       -0.2696396988        1.3913006395
 C         -4.1879655621        0.3460379734        0.3700109620
 C         -4.8560980852        1.1494523699       -0.7076174427
 C         -2.8688252917        0.1888794680        0.4137680715
 C         -1.9182567107        0.8075386757       -0.5787582442
 C         -0.5106634982        0.2962775321       -0.4374665277
 C         -0.2126007804       -1.0217922122       -0.5765568201
 O         -1.1129950610       -1.9709429459       -0.8552591593
 C          1.1693918828       -1.5558205070       -0.4440295134
 O          1.4009814020       -2.7459881730       -0.5976675907
 C          2.2156173340       -0.5751299207       -0.1221067187
 C          3.5303037997       -1.0058055435        0.0335390610
 C          4.5336327071       -0.1007628701        0.3389297059
 C          4.2304302354        1.2430547048        0.4906610866
 C          2.9245978501        1.6818009742        0.3353076318
 C          1.9089876495        0.7832327357        0.0297311188
 C          0.5258733579        1.2798591129       -0.1307768979
 O          0.2645036779        2.4750160928       -0.0117440431
 H         -5.8213807949       -0.9167123558        0.9036873569
 H         -5.6420433204        0.5092928747        1.9193787207
 H         -4.5320882168       -0.8536188123        2.1163343104
 H         -4.4108223708        2.1408859484       -0.7757564987
 H         -5.9179667560        1.2559995023       -0.5057248433
 H         -4.7379757278        0.6685172192       -1.6783387012
 H         -2.4163911975       -0.3718988287        1.2205854364
 H         -1.8863860012        1.8924286433       -0.4311632136
 H         -2.2774668385        0.6375154084       -1.5993160570
 H         -2.0169117818       -1.6124445921       -0.9053893382
 H          3.7410521222       -2.0575093947       -0.0899665929
 H          5.5484161879       -0.4452196700        0.4586408369
 H          5.0081125394        1.9513443909        0.7283959833
 H          2.6666060642        2.7242988559        0.4479275672
  32
 Etot=  -51.4237323972 g norm=  0.00021366
 C         -4.9972431187        0.2811861919        1.7773283610
 C         -4.1570718795        0.4482100845        0.5458606137
 C         -4.9210525657        0.3294400994       -0.7376134814
 C         -2.8549103100        0.7065258822        0.6374614351
 C         -1.8969574566        0.9554483792       -0.4947251971
 C         -0.5131056839        0.4293776615       -0.2116694004
 C         -0.3045485411       -0.8444106355        0.2122053221
 O         -1.2790915691       -1.7377625953        0.4132332827
 C          1.0506205204       -1.3906248887        0.4918857216
 O          1.1975012967       -2.5426282556        0.8725356931
 C          2.1773712113       -0.4708929610        0.2811936798
 C          3.4747523014       -0.9141386805        0.5228453456
 C          4.5531928642       -0.0665521755        0.3293825612
 C          4.3428945677        1.2318327180       -0.1073383340
 C          3.0545418684        1.6829236572       -0.3488464106
 C          1.9642054688        0.8418943447       -0.1583370654
 C          0.6013203180        1.3510552581       -0.4206381441
 O          0.4191001700        2.5056696354       -0.8008106262
 H         -4.4068766719        0.4052347419        2.6809582862
 H         -5.4564109871       -0.7061803576        1.7917192972
 H         -5.8001644571        1.0165550878        1.7809843809
 H         -5.6033526880       -0.5169602985       -0.6897641743
 H         -4.2742864777        0.2115977330       -1.6013987507
 H         -5.5193441265        1.2276450316       -0.8866473080
 H         -2.4113978487        0.8088108448        1.6206957407
 H         -1.8002324476        2.0332982877       -0.6621827221
 H         -2.2655291022        0.5193329114       -1.4266537276
 H         -2.1613375173       -1.3347499733        0.2950596324
 H          3.6120510773       -1.9296217328        0.8627280741
 H          5.5541155720       -0.4202009358        0.5185173176
 H          5.1796424882        1.8946889273       -0.2607502092
 H          2.8683448818        2.6908577757       -0.6886665674
  32
 Etot=  -51.4237096777 g norm=  0.00021714
 C         -4.9278866844        0.5239536959        1.7879326759
 C         -4.0973711187        0.2948575000        0.5601302551
 C         -4.8367015955       -0.3637318644       -0.5645678995
 C         -2.8255230918        0.6846991649        0.5145166362
 C         -1.8820048930        0.5784677283       -0.6512943334
 C         -0.4709460712        0.2567714460       -0.2293559700
 C         -0.1947004176       -0.7752150754        0.6099297998
 O         -1.1226904586       -1.5825259130        1.1345952425
 C          1.1884541060       -1.1284545525        1.0276934588
 O          1.3973649317       -2.0709947186        1.7770686604
 C          2.2644837574       -0.2860230749        0.4866086734
 C          3.5843979870       -0.5554287665        0.8378493927
 C          4.6158485185        0.2248586849        0.3417462316
 C          4.3356547369        1.2811363826       -0.5105723721
 C          3.0244779352        1.5573753868       -0.8659381713
 C          1.9807720768        0.7818299813       -0.3744362927
 C          0.5921984973        1.1011932750       -0.7692006037
 O          0.3478102674        2.0416552899       -1.5220711302
 H         -4.3629905242        1.0407522926        2.5588137706
 H         -5.2797246322       -0.4255692964        2.1888075848
 H         -5.8041017919        1.1197872106        1.5376452768
 H         -5.5078131922        0.3582054789       -1.0288886785
 H         -5.4452244240       -1.1816900356       -0.1839113195
 H         -4.1746411155       -0.7477356969       -1.3343346539
 H         -2.4021343041        1.1840423637        1.3779035639
 H         -1.8463262620        1.5356169914       -1.1818890855
 H         -2.2225627030       -0.1730702597       -1.3679433497
 H         -2.0240745556       -1.2737808418        0.9137607686
 H          3.7766962059       -1.3835202092        1.5033991379
 H          5.6346992827        0.0073502215        0.6199673158
 H          5.1355096043        1.8911353455       -0.8993611795
 H          2.7841346763        2.3757585028       -1.5281076859
  32
 Etot=  -51.4236990246 g norm=  0.00043087
 C         -4.8517559634        0.3999187439       -1.8099963928
 C         -4.0125706457        0.1384755749       -0.5950206667
 C         -4.7296861654       -0.5850402076        0.5041967816
 C         -2.7514463179        0.5593702928       -0.5313118483
 C         -1.8131780870        0.4273685653        0.6360723834
 C         -0.3798432346        0.2209590207        0.2182783184
 C         -0.0289549165       -0.7219033438       -0.6947428923
 O         -0.8973256110       -1.5370588364       -1.3028814915
 C          1.3794984449       -0.9588950989       -1.1101942307
 O          1.6550759680       -1.8147858447       -1.9379002206
 C          2.3967907937       -0.1163142723       -0.4659330827
 C          3.7377727182       -0.2927119665       -0.7956875385
 C          4.7152073099        0.4875142261       -0.2001705686
 C          4.3592003700        1.4523109610        0.7289326177
 C          3.0263054049        1.6368388773        1.0622020317
 C          2.0364938200        0.8586720685        0.4729985067
 C          0.6233411835        1.0759467992        0.8491602795
 O          0.3108966020        1.9416179640        1.6639727872
 H         -4.3005729480        0.9589118166       -2.5611329190
 H         -5.7384159724        0.9676132798       -1.5323681217
 H         -5.1868800037       -0.5393084038       -2.2477387224
 H         -4.0503430359       -1.0413932208        1.2174614950
 H         -5.3725500687       -1.3572203531        0.0877444592
 H         -5.3625551359        0.1159267544        1.0471694332
 H         -2.3408912121        1.1093311206       -1.3695539621
 H         -2.1162947891       -0.3923745650        1.2926856734
 H         -1.8421772661        1.3436414330        1.2350359225
 H         -1.8194579180       -1.3084759946       -1.0712771389
 H          3.9890995244       -1.0500575607       -1.5230044147
 H          5.7511338063        0.3415777523       -0.4615385121
 H          5.1168345324        2.0617110089        1.1953842660
 H          2.7271874657        2.3832872724        1.7828456368
  32
 Etot=  -51.4239687478 g norm=  0.00024370
 C         -4.5422169480        0.8924877081       -1.6818870351
 C         -3.6771595750        0.9194611512       -0.4583334034
 C         -3.6479342467        2.2271986196        0.2795586690
 C         -3.0099546366       -0.1593931759       -0.0641575555
 C         -2.1114223609       -0.2450060889        1.1428990219
 C         -0.6799429979       -0.3864396635        0.6876741220
 C         -0.1526073142       -1.5813964942        0.3149296830
 O         -0.8156099738       -2.7442857764        0.3436015151
 C          1.2469893054       -1.7332396027       -0.1631437315
 O          1.6933851006       -2.8319077684       -0.4600281545
 C          2.0417303993       -0.5005362657       -0.2485650012
 C          3.3569441184       -0.5660956071       -0.7000523064
 C          4.1258889196        0.5826314377       -0.7892668938
 C          3.5849734904        1.8066084672       -0.4286999028
 C          2.2764774129        1.8816186746        0.0228371170
 C          1.4950269291        0.7357996265        0.1179337057
 C          0.1040097001        0.8449457140        0.6062463684
 O         -0.3658909462        1.9315961474        0.9343111284
 H         -4.5486145734       -0.0907427982       -2.1447128099
 H         -4.1788854937        1.6185047259       -2.4081022747
 H         -5.5632727006        1.1664368267       -1.4210598904
 H         -4.1862418714        2.1456030101        1.2231735785
 H         -4.1167474760        3.0076660631       -0.3128972809
 H         -2.6246571237        2.5271025059        0.4998392305
 H         -3.0657006376       -1.0596550337       -0.6623388018
 H         -2.4051021272       -1.0888175758        1.7726040499
 H         -2.1899273224        0.6653703963        1.7344197836
 H         -1.7196994579       -2.6393089554        0.6866512729
 H          3.7548495174       -1.5314876053       -0.9744338263
 H          5.1438509183        0.5209248582       -1.1396045443
 H          4.1801675692        2.7033825543       -0.4962270521
 H          1.8370525678        2.8250419010        0.3104642658
  32
 Etot=  -51.4237255464 g norm=  0.00031864
 C         -4.8398407900        0.5218002752       -1.8066350489
 C         -3.9989711224        0.1799440446       -0.6127447893
 C         -4.7182323359       -0.6076180240        0.4398853085
 C         -2.7350585373        0.5874482572       -0.5263256569
 C         -1.7942902013        0.3731442330        0.6270030765
 C         -0.3601054950        0.2111124254        0.1931852604
 C         -0.0015943592       -0.6607402055       -0.7851250801
 O         -0.8620153900       -1.4406251289       -1.4481591521
 C          1.4083028789       -0.8522066877       -1.2190557806
 O          1.6910907181       -1.6472756670       -2.1030983657
 C          2.4176448640       -0.0417602777       -0.5231231534
 C          3.7587206048       -0.1737880795       -0.8726819125
 C          4.7287370674        0.5767449049       -0.2287249401
 C          4.3652062456        1.4667799769        0.7694645764
 C          3.0320921063        1.6069568450        1.1229128689
 C          2.0496364842        0.8585368498        0.4848628136
 C          0.6358517480        1.0288158537        0.8822870653
 O          0.3168846357        1.8274856331        1.7605536302
 H         -5.1711905137       -0.3866468339       -2.3078385255
 H         -4.2910019238        1.1330509695       -2.5177989368
 H         -5.7286234699        1.0655278777       -1.4906227124
 H         -5.3605693896        0.0583589075        1.0150276934
 H         -4.0406866111       -1.0970658576        1.1326084624
 H         -5.3523895531       -1.3603554882       -0.0232892702
 H         -2.3236210352        1.1882416741       -1.3283199777
 H         -2.0904063976       -0.4969936098        1.2188859664
 H         -1.8294095486        1.2403509043        1.2948333601
 H         -1.7859635937       -1.2439964346       -1.1973545905
 H          4.0161466795       -0.8730902599       -1.6539876594
 H          5.7647424645        0.4663988231       -0.5067377475
 H          5.1171237757        2.0528590823        1.2735836365
 H          2.7272032155        2.2950496637        1.8972916978
  32
 Etot=  -51.4237177153 g norm=  0.00031095
 C         -4.9153956085        0.0964316994        1.7079232992
 C         -4.0807466919        0.0779935878        0.4615825670
 C         -4.8083738474       -0.4123940141       -0.7526716982
 C         -2.8160518197        0.4918763134        0.4820905665
 C         -1.8678033463        0.5847923699       -0.6815437164
 C         -0.4490722163        0.2441043618       -0.3026721385
 C         -0.1453433095       -0.8945750215        0.3732593757
 O         -1.0504893106       -1.7995749748        0.7598580776
 C          1.2456219555       -1.2634125281        0.7497772332
 O          1.4782062330       -2.2937997337        1.3644529070
 C          2.2995602075       -0.3263351656        0.3361544406
 C          3.6269563129       -0.6139182788        0.6420260040
 C          4.6382378048        0.2533571530        0.2626898985
 C          4.3300475629        1.4166760844       -0.4246920922
 C          3.0111471823        1.7124339467       -0.7325610487
 C          1.9876347951        0.8492858229       -0.3586666481
 C          0.5902487909        1.1906198630       -0.7004529594
 O          0.3200369622        2.2301160721       -1.2983018758
 H         -5.7885594585        0.7300377235        1.5607800117
 H         -4.3520756251        0.4719624480        2.5577018740
 H         -5.2725780832       -0.9058811046        1.9393478251
 H         -5.5612938135        0.3193115056       -1.0428374992
 H         -5.3252705687       -1.3435489920       -0.5274874856
 H         -4.1508658254       -0.5715712371       -1.6012022140
 H         -2.4034784817        0.8585505432        1.4144407918
 H         -1.8580942061        1.6102257609       -1.0654675514
 H         -2.1845263572       -0.0632827303       -1.5025305620
 H         -1.9594985431       -1.4914222419        0.5732305312
 H          3.8407487370       -1.5260097211        1.1787429292
 H          5.6631097332        0.0208855442        0.5043169184
 H          5.1141800880        2.0944860046       -0.7225328682
 H          2.7491167276        2.6136033280       -1.2666371754
  32
 Etot=  -51.4237082947 g norm=  0.00031788
 C         -4.9493171522        0.5150631344        1.7432000014
 C         -4.1094487572        0.2927939883        0.5205374206
 C         -4.8391958594       -0.3607962352       -0.6132958417
 C         -2.8379062933        0.6847392398        0.4858907656
 C         -1.8871120959        0.5870674382       -0.6746366637
 C         -0.4783162418        0.2611575018       -0.2483302504
 C         -0.2067966842       -0.7731864363        0.5895924364
 O         -1.1379437576       -1.5793832251        1.1103054234
 C          1.1744449398       -1.1304214280        1.0104843372
 O          1.3787376322       -2.0733772798        1.7606019986
 C          2.2543779912       -0.2925279481        0.4702487857
 C          3.5730816346       -0.5683789454        0.8210774008
 C          4.6081196146        0.2074419868        0.3254075847
 C          4.3327788884        1.2658829493       -0.5257984693
 C          3.0228242102        1.5488104289       -0.8804091445
 C          1.9755792273        0.7775640193       -0.3896271871
 C          0.5884759312        1.1036578897       -0.7839596704
 O          0.3482401850        2.0476793632       -1.5336744370
 H         -4.3894893471        1.0248235399        2.5225161761
 H         -5.3071750127       -0.4363503476        2.1341424824
 H         -5.8218178803        1.1151200415        1.4898310055
 H         -4.1703527950       -0.7478372872       -1.3756299739
 H         -5.5007477773        0.3650897933       -1.0847294319
 H         -5.4560978143       -1.1756973964       -0.2402900475
 H         -2.4213792542        1.1807068545        1.3544217764
 H         -1.8477841529        1.5483345429       -1.1975454964
 H         -2.2238734982       -0.1584412659       -1.3994032117
 H         -2.0381123332       -1.2677560948        0.8878202551
 H          3.7615758807       -1.3979502018        1.4858618599
 H          5.6259805694       -0.0149476615        0.6034377366
 H          5.1354112523        1.8723198505       -0.9144048508
 H          2.7862058855        2.3687963914       -1.5419426516
  32
 Etot=  -51.4236827032 g norm=  0.00022563
 C         -5.1050717638       -0.2513003172        1.3992047725
 C         -4.1986701527        0.3404044405        0.3650055230
 C         -4.8665345558        1.1096868857       -0.7375698764
 C         -2.8789635637        0.1921920934        0.4193472663
 C         -1.9267812276        0.7880558188       -0.5852109825
 C         -0.5199142669        0.2775945990       -0.4333180652
 C         -0.2259703865       -1.0446222720       -0.5367881596
 O         -1.1303382472       -1.9982314401       -0.7857658301
 C          1.1546751986       -1.5791854090       -0.3928262052
 O          1.3806095052       -2.7750447176       -0.5047197765
 C          2.2062040551       -0.5920299767       -0.1105461258
 C          3.5212529933       -1.0213742342        0.0458673941
 C          4.5298802916       -0.1100215415        0.3122845188
 C          4.2315154907        1.2387049354        0.4250324422
 C          2.9251643292        1.6758917142        0.2701679748
 C          1.9042950832        0.7710973217        0.0025616759
 C          0.5207606639        1.2663963358       -0.1595794036
 O          0.2629824959        2.4648312447       -0.0706768344
 H         -5.6626880643        0.5384630068        1.9008036325
 H         -4.5443805974       -0.8093622903        2.1443700167
 H         -5.8257685617       -0.9177789824        0.9273789323
 H         -4.4435185242        2.1101642848       -0.8140223666
 H         -5.9335981138        1.1947058394       -0.5553387559
 H         -4.7206234592        0.6169797194       -1.6984716798
 H         -2.4277266641       -0.3430952867        1.2441090559
 H         -1.8931483943        1.8756937162       -0.4612084384
 H         -2.2855485456        0.5967493655       -1.6021350841
 H         -2.0330707912       -1.6375137670       -0.8424023653
 H          3.7281561385       -2.0769853954       -0.0467071924
 H          5.5451722729       -0.4531079594        0.4316834863
 H          5.0135113026        1.9516487606        0.6329837415
 H          2.6708327992        2.7220764260        0.3524394541
  32
 Etot=  -51.4236910066 g norm=  0.00056213
 C         -4.9940575533        0.0294010896       -1.5719436111
 C         -4.1254337935        0.1330027189       -0.3530704685
 C         -4.8214767680       -0.2306769260        0.9230424701
 C         -2.8623198023        0.5406275131       -0.4486490620
 C         -1.8836265836        0.7538586911        0.6727114541
 C         -0.4867281006        0.3113554826        0.3173743668
 C         -0.2355244740       -0.9282246730       -0.1782826040
 O         -1.1774777182       -1.8497826412       -0.4046047446
 C          1.1343953753       -1.4030052452       -0.5101981489
 O          1.3210229679       -2.5301230160       -0.9440875326
 C          2.2259669873       -0.4463027923       -0.2802154131
 C          3.5353452550       -0.8238002452       -0.5647938703
 C          4.5809282274        0.0613512346       -0.3598606418
 C          4.3252239432        1.3323384307        0.1299211125
 C          3.0246817900        1.7173451118        0.4165292224
 C          1.9671764634        0.8372876064        0.2174112270
 C          0.5910154590        1.2731664041        0.5372000013
 O          0.3687366187        2.4012154834        0.9717874857
 H         -5.3579112099       -0.9900553623       -1.6925530955
 H         -4.4539068077        0.3168480641       -2.4699018222
 H         -5.8626412309        0.6774759069       -1.4647191458
 H         -4.1401726905       -0.3285478465        1.7619920147
 H         -5.3630842838       -1.1663831409        0.7986996498
 H         -5.5502149472        0.5404132375        1.1695241157
 H         -2.4733407795        0.8061020773       -1.4241144688
 H         -2.2030013403        0.2370090992        1.5808386161
 H         -1.8289089853        1.8213368019        0.9100902545
 H         -2.0725367211       -1.4858055258       -0.2574077069
 H          3.7079119836       -1.8186753123       -0.9470638794
 H          5.5915658328       -0.2413694654       -0.5827534677
 H          5.1361653545        2.0249561015        0.2901763066
 H          2.8037109237        2.7024232569        0.7997324263
  32
 Etot=  -51.4237451359 g norm=  0.00023158
 C         -4.6872442246        0.2730241723        2.0956713562
 C         -3.9297382523        0.0892195119        0.8142520445
 C         -4.7221236937       -0.5601792168       -0.2792766825
 C         -2.6721807607        0.5084664708        0.6984244944
 C         -1.8041066237        0.4465034613       -0.5279997440
 C         -0.3540366460        0.1979649095       -0.2002651900
 C          0.0301590764       -0.8296942725        0.6009321478
 O         -0.8167358214       -1.6960348657        1.1669261211
 C          1.4542646654       -1.1117973576        0.9253471337
 O          1.7616392190       -2.0568084078        1.6367183918
 C          2.4459273825       -0.1973564237        0.3419119677
 C          3.7975007271       -0.3943502408        0.6113567471
 C          4.7509745469        0.4556337734        0.0754061451
 C          4.3604648557        1.5099706938       -0.7349170644
 C          3.0170454886        1.7136627106       -1.0097745419
 C          2.0508275618        0.8674404791       -0.4779741837
 C          0.6255496201        1.1089738517       -0.7878777099
 O          0.2840121838        2.0415265489       -1.5120735878
 H         -4.9898704129       -0.6928750853        2.4977226832
 H         -5.5918056627        0.8506469224        1.9122595324
 H         -4.0884125168        0.7894304945        2.8408719258
 H         -5.3057458821       -1.3861992453        0.1215213191
 H         -4.0976794988       -0.9303612502       -1.0864233998
 H         -5.4193609209        0.1633561548       -0.7000516603
 H         -2.2060781119        1.0004492741        1.5436356181
 H         -1.8524591490        1.4024887375       -1.0597278857
 H         -2.1540061073       -0.3236434341       -1.2201882485
 H         -1.7464268970       -1.4408816079        1.0063956579
 H          4.0760255402       -1.2225374051        1.2455559392
 H          5.7951964574        0.2947729075        0.2912718638
 H          5.0993105881        2.1746459272       -1.1536182412
 H          2.6910679108        2.5291144690       -1.6380564860
  32
 Etot=  -51.4237176313 g norm=  0.00016189
 C         -5.0081442920        0.7704271317        1.7267730411
 C         -4.1523631250        0.7537060650        0.4985835148
 C         -4.8755955219        0.8609081040       -0.8124765380
 C         -2.8290218107        0.6472797040        0.5663087394
 C         -1.9236298857        0.6461937668       -0.6380528211
 C         -0.5154249117        0.2286211541       -0.3126091647
 C         -0.2436662969       -0.9661946649        0.2740763882
 O         -1.1735210368       -1.8713098237        0.5987905182
 C          1.1360176826       -1.4027341070        0.6171524963
 O          1.3399625628       -2.4871684055        1.1425506346
 C          2.2148720691       -0.4601549329        0.2889226790
 C          3.5316209069       -0.7988636234        0.5883321943
 C          4.5658517898        0.0723496535        0.2878993892
 C          4.2917183079        1.2897061154       -0.3151118037
 C          2.9837400368        1.6360044029       -0.6167195284
 C          1.9372358152        0.7706117205       -0.3196039788
 C          0.5522819861        1.1668291385       -0.6520967964
 O          0.3146407294        2.2434200233       -1.1955484757
 H         -5.5577084994        1.7089870926        1.7849399871
 H         -4.4102127895        0.6602183536        2.6275995894
 H         -5.7367440389       -0.0381240978        1.6855529459
 H         -4.4579755844        1.6668540424       -1.4136502111
 H         -5.9319933907        1.0552660820       -0.6534007559
 H         -4.7796420450       -0.0609577634       -1.3853129697
 H         -2.3387144405        0.6037352446        1.5296801060
 H         -1.8731633282        1.6536415645       -1.0648321840
 H         -2.3343897026       -0.0057946330       -1.4160882949
 H         -2.0727215119       -1.5489786374        0.4072986535
 H          3.7191664310       -1.7529563198        1.0577685365
 H          5.5822895998       -0.1999229308        0.5236573817
 H          5.0939121481        1.9705467826       -0.5517875806
 H          2.7480026697        2.5792859191       -1.0865398664
  32
 Etot=  -51.4203452937 g norm=  0.00068684
 C         -3.7758561812        2.1108267732        1.3843218524
 C         -3.1093406579        0.9310943576        0.7431081868
 C         -2.6966908081       -0.1523689507        1.6972694638
 C         -2.9053972070        0.8828369042       -0.5685035079
 C         -2.2247681291       -0.2464111000       -1.3035606851
 C         -0.8069208393       -0.4165617899       -0.8192429605
 C         -0.2953856130       -1.5919362276       -0.3724488229
 O         -0.9474610166       -2.7633128041       -0.3594723481
 C          1.0824785037       -1.7157144209        0.1760426972
 O          1.5097431393       -2.7963067080        0.5550882017
 C          1.8732001194       -0.4795774796        0.2419468258
 C          3.1460988044       -0.5094470685        0.8051897477
 C          3.9078296241        0.6452625079        0.8759143098
 C          3.4043524458        1.8379490653        0.3806015958
 C          2.1405932957        1.8756236439       -0.1878787095
 C          1.3653601896        0.7240961149       -0.2612369291
 C          0.0198032609        0.7920974540       -0.8709428638
 O         -0.3779003732        1.8210087077       -1.4073997542
