32

C          1.84831        1.61519       -1.51264
C          3.23765        1.08770       -1.26201
C          4.31983        2.11226       -1.06833
C          3.44673       -0.24233       -1.18451
C          4.74124       -0.94898       -0.86936
C          5.17859       -1.87792       -1.97959
C          5.99359       -1.53598       -2.99585
O          6.50355       -0.25857       -3.16121
C          6.41378       -2.52690       -4.03696
O          7.13630       -2.20975       -4.97613
C          5.94153       -3.91295       -3.90843
C          6.33380       -4.86912       -4.85702
C          5.90177       -6.19067       -4.73906
C          5.07971       -6.56007       -3.67628
C          4.68649       -5.60844       -2.73384
C          5.11751       -4.27925       -2.85229
C          4.69387       -3.28409       -1.85208
O          3.96057       -3.62330       -0.92903
H          1.83432        2.70628       -1.60112
H          1.18451        1.34817       -0.68306
H          1.43783        1.20857       -2.44239
H          3.93154        3.13394       -1.12096
H          5.07787        2.02407       -1.85078
H          4.79458        1.99579       -0.08930
H          2.58864       -0.90740       -1.31013
H          4.60744       -1.50460        0.06820
H          5.54150       -0.24005       -0.63835
H          6.09273        0.35047       -2.53199
H          6.97826       -4.58639       -5.68836
H          6.20886       -6.93013       -5.47514
H          4.74424       -7.59097       -3.57997
H          4.04490       -5.90730       -1.90636
